##TITLE=n-Undecane
##JCAMP-DX=4.24
$$ By DXEDIT 1.05 (RS McDonald)
##DATA TYPE=INFRARED SPECTRUM
##CLASS=COBLENTZ III
##ORIGIN=DOW CHEMICAL COMPANY
##OWNER=COPYRIGHT (C) 1988 by COBLENTZ SOCIETY INC.
Collection (C) 2018 copyright by the U.S. Secretary of Commerce
on behalf of the United States of America. All rights reserved.
##DATE=1960/12/28
##NAMES=undecane
##CAS REGISTRY NO=1120-21-4
##MOLFORM=C11 H24
##SOURCE REFERENCE=COBLENTZ NO. 7956
##$NIST SOURCE=COBLENTZ
##$NIST IMAGE=cob7956
##SPECTROMETER/DATA SYSTEM=DOW KBr FOREPRISM-GRATING
##INSTRUMENT PARAMETERS=BLAZED AT 3.5, 12.0, 20.0 MICRON AND CHANGED AT 5.0, 7.5, 14.9 MICRON
##STATE=SOLUTION (10% CCl4 FOR 3800-1330, 10% CS2 FOR 1330-450 CM^-^1)
##PATH LENGTH=0.012 CM, 0.011 CM
$$SPECTRAL CONTAMINATION DUE TO CS2 AROUND 850 AND CCl4 AROUND 1550 CM^-^1 HAVE BEEN SUBTRACTED
##SAMPLING PROCEDURE=TRANSMISSION
##RESOLUTION=2
##DATA PROCESSING=DIGITIZED BY COBLENTZ SOCIETY (BATCH I) FROM HARD COPY
##XUNITS=1/CM
##YUNITS=TRANSMITTANCE
##XFACTOR=1
##YFACTOR=1
##DELTAX=1
##FIRSTX=3774
##LASTX=420
##FIRSTY=0.9153
##MAXX=3774
##MINX=420
##MAXY=1.0153
##MINY=0.003
##NPOINTS=3355
##XYDATA=(X++(Y..Y))
3774.000000 0.9153 0.9159 0.9166 0.9174 0.9181
3769.000000 0.9187 0.9195 0.9201 0.9208 0.9214
3764.000000 0.9221 0.9226 0.9231 0.9234 0.9248
3759.000000 0.9251 0.9248 0.9252 0.9256 0.9261
3754.000000 0.9265 0.9269 0.9274 0.9275 0.9276
3749.000000 0.9276 0.9278 0.9279 0.9279 0.9281
3744.000000 0.9283 0.9284 0.9284 0.9286 0.9287
3739.000000 0.9291 0.9303 0.9303 0.9303 0.9303
3734.000000 0.9295 0.9287 0.9294 0.9300 0.9300
3729.000000 0.9300 0.9300 0.9299 0.9298 0.9295
3724.000000 0.9295 0.9292 0.9292 0.9291 0.9290
3719.000000 0.9273 0.9273 0.9286 0.9285 0.9284
3714.000000 0.9283 0.9282 0.9285 0.9290 0.9285
3709.000000 0.9295 0.9294 0.9293 0.9291 0.9289
3704.000000 0.9287 0.9284 0.9282 0.9279 0.9276
3699.000000 0.9262 0.9249 0.9235 0.9209 0.9193
3694.000000 0.9180 0.9166 0.9153 0.9144 0.9137
3689.000000 0.9133 0.9129 0.9130 0.9124 0.9128
3684.000000 0.9134 0.9140 0.9145 0.9150 0.9155
3679.000000 0.9160 0.9165 0.9169 0.9173 0.9177
3674.000000 0.9180 0.9186 0.9190 0.9194 0.9213
3669.000000 0.9204 0.9204 0.9205 0.9207 0.9208
3664.000000 0.9209 0.9210 0.9212 0.9213 0.9215
3659.000000 0.9216 0.9218 0.9218 0.9218 0.9218
3654.000000 0.9218 0.9218 0.9218 0.9217 0.9217
3649.000000 0.9216 0.9216 0.9216 0.9216 0.9215
3644.000000 0.9215 0.9214 0.9214 0.9214 0.9214
3639.000000 0.9213 0.9213 0.9211 0.9211 0.9211
3634.000000 0.9212 0.9216 0.9229 0.9229 0.9225
3629.000000 0.9213 0.9221 0.9231 0.9231 0.9231
3624.000000 0.9232 0.9232 0.9232 0.9232 0.9233
3619.000000 0.9233 0.9234 0.9234 0.9234 0.9234
3614.000000 0.9235 0.9235 0.9236 0.9237 0.9238
3609.000000 0.9239 0.9227 0.9243 0.9245 0.9245
3604.000000 0.9248 0.9245 0.9242 0.9253 0.9249
3599.000000 0.9240 0.9250 0.9260 0.9262 0.9263
3594.000000 0.9265 0.9267 0.9269 0.9271 0.9273
3589.000000 0.9275 0.9277 0.9280 0.9283 0.9285
3584.000000 0.9287 0.9289 0.9292 0.9293 0.9296
3579.000000 0.9297 0.9301 0.9304 0.9301 0.9297
3574.000000 0.9311 0.9313 0.9308 0.9299 0.9300
3569.000000 0.9301 0.9302 0.9302 0.9303 0.9304
3564.000000 0.9305 0.9305 0.9306 0.9307 0.9308
3559.000000 0.9308 0.9309 0.9310 0.9312 0.9326
3554.000000 0.9312 0.9316 0.9331 0.9331 0.9328
3549.000000 0.9321 0.9334 0.9334 0.9334 0.9327
3544.000000 0.9325 0.9334 0.9335 0.9335 0.9325
3539.000000 0.9329 0.9324 0.9331 0.9336 0.9336
3534.000000 0.9336 0.9336 0.9337 0.9337 0.9337
3529.000000 0.9320 0.9320 0.9320 0.9320 0.9319
3524.000000 0.9319 0.9318 0.9318 0.9317 0.9317
3519.000000 0.9316 0.9316 0.9315 0.9315 0.9314
3514.000000 0.9314 0.9313 0.9313 0.9312 0.9312
3509.000000 0.9310 0.9310 0.9309 0.9309 0.9308
3504.000000 0.9307 0.9306 0.9305 0.9303 0.9302
3499.000000 0.9301 0.9300 0.9299 0.9298 0.9297
3494.000000 0.9295 0.9294 0.9293 0.9292 0.9291
3489.000000 0.9289 0.9288 0.9286 0.9285 0.9283
3484.000000 0.9282 0.9280 0.9278 0.9275 0.9275
3479.000000 0.9272 0.9270 0.9266 0.9262 0.9257
3474.000000 0.9253 0.9249 0.9245 0.9237 0.9230
3469.000000 0.9223 0.9215 0.9208 0.9200 0.9192
3464.000000 0.9185 0.9181 0.9177 0.9176 0.9174
3459.000000 0.9172 0.9170 0.9167 0.9166 0.9162
3454.000000 0.9160 0.9158 0.9158 0.9157 0.9158
3449.000000 0.9159 0.9161 0.9162 0.9164 0.9164
3444.000000 0.9165 0.9164 0.9162 0.9159 0.9157
3439.000000 0.9154 0.9152 0.9148 0.9146 0.9143
3434.000000 0.9140 0.9137 0.9135 0.9132 0.9129
3429.000000 0.9126 0.9124 0.9121 0.9121 0.9105
3424.000000 0.9115 0.9114 0.9112 0.9110 0.9108
3419.000000 0.9106 0.9105 0.9103 0.9101 0.9099
3414.000000 0.9097 0.9094 0.9092 0.9090 0.9089
3409.000000 0.9087 0.9086 0.9093 0.9092 0.9084
3404.000000 0.9084 0.9083 0.9083 0.9082 0.9082
3399.000000 0.9081 0.9080 0.9078 0.9078 0.9078
3394.000000 0.9078 0.9078 0.9078 0.9078 0.9078
3389.000000 0.9078 0.9078 0.9078 0.9078 0.9078
3384.000000 0.9078 0.9078 0.9078 0.9078 0.9079
3379.000000 0.9080 0.9082 0.9083 0.9086 0.9087
3374.000000 0.9089 0.9090 0.9092 0.9093 0.9109
3369.000000 0.9097 0.9098 0.9099 0.9101 0.9102
3364.000000 0.9103 0.9104 0.9105 0.9106 0.9107
3359.000000 0.9108 0.9109 0.9110 0.9111 0.9113
3354.000000 0.9113 0.9115 0.9116 0.9116 0.9118
3349.000000 0.9119 0.9120 0.9120 0.9122 0.9136
3344.000000 0.9139 0.9125 0.9137 0.9124 0.9123
3339.000000 0.9123 0.9139 0.9138 0.9136 0.9122
3334.000000 0.9122 0.9122 0.9120 0.9120 0.9120
3329.000000 0.9119 0.9119 0.9119 0.9119 0.9119
3324.000000 0.9119 0.9119 0.9119 0.9119 0.9119
3319.000000 0.9119 0.9119 0.9119 0.9119 0.9119
3314.000000 0.9121 0.9121 0.9137 0.9137 0.9137
3309.000000 0.9137 0.9136 0.9126 0.9138 0.9138
3304.000000 0.9133 0.9122 0.9122 0.9122 0.9122
3299.000000 0.9122 0.9122 0.9122 0.9122 0.9122
3294.000000 0.9124 0.9124 0.9124 0.9124 0.9124
3289.000000 0.9124 0.9124 0.9124 0.9125 0.9125
3284.000000 0.9126 0.9141 0.9139 0.9125 0.9129
3279.000000 0.9142 0.9138 0.9126 0.9132 0.9142
3274.000000 0.9142 0.9142 0.9143 0.9143 0.9143
3269.000000 0.9143 0.9143 0.9143 0.9144 0.9144
3264.000000 0.9144 0.9144 0.9145 0.9145 0.9145
3259.000000 0.9145 0.9145 0.9144 0.9131 0.9146
3254.000000 0.9146 0.9145 0.9145 0.9145 0.9145
3249.000000 0.9144 0.9144 0.9144 0.9144 0.9135
3244.000000 0.9135 0.9142 0.9142 0.9139 0.9137
3239.000000 0.9137 0.9136 0.9134 0.9133 0.9132
3234.000000 0.9130 0.9129 0.9127 0.9127 0.9126
3229.000000 0.9125 0.9123 0.9120 0.9105 0.9108
3224.000000 0.9119 0.9117 0.9116 0.9115 0.9114
3219.000000 0.9113 0.9112 0.9110 0.9108 0.9104
3214.000000 0.9102 0.9099 0.9096 0.9093 0.9090
3209.000000 0.9086 0.9070 0.9064 0.9061 0.9058
3204.000000 0.9056 0.9051 0.9048 0.9045 0.9044
3199.000000 0.9052 0.9039 0.9043 0.9033 0.9040
3194.000000 0.9037 0.9033 0.9030 0.9026 0.9015
3189.000000 0.9013 0.9017 0.9014 0.9003 0.8996
3184.000000 0.8995 0.8994 0.8993 0.8992 0.8992
3179.000000 0.8992 0.8992 0.8992 0.8992 0.8992
3174.000000 0.8992 0.8992 0.8992 0.8992 0.8992
3169.000000 0.8992 0.8992 0.8992 0.8992 0.8991
3164.000000 0.8998 0.9006 0.8997 0.8999 0.9006
3159.000000 0.9005 0.8994 0.8999 0.8991 0.8987
3154.000000 0.9000 0.9001 0.9001 0.9000 0.9000
3149.000000 0.8999 0.8983 0.8982 0.8981 0.8980
3144.000000 0.8979 0.8977 0.8976 0.8980 0.8989
3139.000000 0.8987 0.8986 0.8985 0.8984 0.8983
3134.000000 0.8982 0.8980 0.8978 0.8975 0.8973
3129.000000 0.8969 0.8967 0.8964 0.8962 0.8959
3124.000000 0.8957 0.8953 0.8951 0.8948 0.8946
3119.000000 0.8942 0.8939 0.8933 0.8928 0.8922
3114.000000 0.8918 0.8911 0.8906 0.8901 0.8895
3109.000000 0.8890 0.8885 0.8888 0.8890 0.8884
3104.000000 0.8877 0.8873 0.8868 0.8862 0.8870
3099.000000 0.8866 0.8861 0.8870 0.8881 0.8890
3094.000000 0.8886 0.8880 0.8873 0.8854 0.8846
3089.000000 0.8822 0.8803 0.8799 0.8797 0.8774
3084.000000 0.8757 0.8748 0.8741 0.8733 0.8726
3079.000000 0.8719 0.8721 0.8727 0.8724 0.8712
3074.000000 0.8714 0.8706 0.8683 0.8669 0.8658
3069.000000 0.8632 0.8636 0.8609 0.8599 0.8586
3064.000000 0.8573 0.8550 0.8538 0.8525 0.8516
3059.000000 0.8515 0.8502 0.8484 0.8462 0.8455
3054.000000 0.8444 0.8425 0.8412 0.8404 0.8394
3049.000000 0.8378 0.8361 0.8344 0.8339 0.8325
3044.000000 0.8321 0.8311 0.8304 0.8295 0.8285
3039.000000 0.8260 0.8236 0.8209 0.8169 0.8132
3034.000000 0.8103 0.8065 0.8029 0.8002 0.7967
3029.000000 0.7928 0.7895 0.7856 0.7817 0.7786
3024.000000 0.7754 0.7715 0.7677 0.7625 0.7575
3019.000000 0.7536 0.7487 0.7441 0.7382 0.7336
3014.000000 0.7289 0.7239 0.7190 0.7133 0.7076
3009.000000 0.7012 0.6945 0.6866 0.6802 0.6739
3004.000000 0.6667 0.6599 0.6529 0.6478 0.6433
2999.000000 0.6363 0.6289 0.6205 0.6122 0.5977
2994.000000 0.5833 0.5486 0.5133 0.4894 0.4655
2989.000000 0.4383 0.4112 0.4042 0.3971 0.3737
2984.000000 0.3500 0.3430 0.3361 0.3251 0.3142
2979.000000 0.2800 0.2451 0.2103 0.1758 0.1410
2974.000000 0.1063 0.0716 0.0369 0.0281 0.0194
2969.000000 0.0166 0.0138 0.0117 0.0096 0.0086
2964.000000 0.0076 0.0068 0.0059 0.0055 0.0054
2959.000000 0.0051 0.0051 0.0052 0.0055 0.0058
2954.000000 0.0061 0.0065 0.0069 0.0072 0.0076
2949.000000 0.0079 0.0081 0.0083 0.0125 0.0087
2944.000000 0.0090 0.0092 0.0094 0.0096 0.0100
2939.000000 0.0100 0.0100 0.0096 0.0091 0.0087
2934.000000 0.0084 0.0079 0.0076 0.0073 0.0071
2929.000000 0.0068 0.0065 0.0064 0.0052 0.0061
2924.000000 0.0061 0.0060 0.0060 0.0059 0.0059
2919.000000 0.0058 0.0058 0.0057 0.0057 0.0057
2914.000000 0.0057 0.0059 0.0062 0.0067 0.0072
2909.000000 0.0077 0.0083 0.0094 0.0107 0.0120
2904.000000 0.0133 0.0156 0.0178 0.0215 0.0252
2899.000000 0.0299 0.0346 0.0392 0.0439 0.0485
2894.000000 0.0531 0.0578 0.0624 0.0671 0.0717
2889.000000 0.0764 0.0810 0.0856 0.0902 0.0940
2884.000000 0.0975 0.0982 0.0984 0.0841 0.0698
2879.000000 0.0530 0.0362 0.0272 0.0186 0.0194
2874.000000 0.0203 0.0225 0.0249 0.0273 0.0310
2869.000000 0.0309 0.0308 0.0281 0.0256 0.0228
2864.000000 0.0204 0.0178 0.0152 0.0126 0.0099
2859.000000 0.0073 0.0048 0.0041 0.0030 0.0034
2854.000000 0.0034 0.0035 0.0037 0.0130 0.0223
2849.000000 0.0326 0.0429 0.0681 0.0935 0.1066
2844.000000 0.1197 0.1353 0.1514 0.1820 0.2127
2839.000000 0.2433 0.2743 0.3050 0.3353 0.3656
2834.000000 0.3964 0.4209 0.4454 0.4698 0.4942
2829.000000 0.5062 0.5170 0.5284 0.5391 0.5500
2824.000000 0.5617 0.5749 0.5862 0.6003 0.6135
2819.000000 0.6252 0.6362 0.6466 0.6571 0.6661
2814.000000 0.6750 0.6816 0.6882 0.6948 0.7013
2809.000000 0.7069 0.7133 0.7185 0.7232 0.7278
2804.000000 0.7325 0.7371 0.7419 0.7460 0.7501
2799.000000 0.7543 0.7585 0.7616 0.7645 0.7673
2794.000000 0.7698 0.7726 0.7751 0.7769 0.7803
2789.000000 0.7817 0.7843 0.7869 0.7896 0.7926
2784.000000 0.7960 0.7980 0.7998 0.8030 0.8059
2779.000000 0.8083 0.8106 0.8129 0.8153 0.8176
2774.000000 0.8198 0.8219 0.8241 0.8261 0.8284
2769.000000 0.8302 0.8319 0.8334 0.8350 0.8364
2764.000000 0.8378 0.8385 0.8395 0.8403 0.8412
2759.000000 0.8420 0.8427 0.8435 0.8442 0.8448
2754.000000 0.8455 0.8457 0.8459 0.8461 0.8462
2749.000000 0.8465 0.8465 0.8466 0.8465 0.8461
2744.000000 0.8458 0.8445 0.8431 0.8419 0.8405
2739.000000 0.8385 0.8367 0.8351 0.8334 0.8321
2734.000000 0.8310 0.8300 0.8291 0.8284 0.8277
2729.000000 0.8279 0.8281 0.8290 0.8262 0.8309
2724.000000 0.8318 0.8328 0.8338 0.8352 0.8367
2719.000000 0.8381 0.8397 0.8412 0.8427 0.8444
2714.000000 0.8460 0.8473 0.8490 0.8504 0.8519
2709.000000 0.8532 0.8548 0.8563 0.8578 0.8582
2704.000000 0.8588 0.8592 0.8596 0.8599 0.8602
2699.000000 0.8605 0.8608 0.8612 0.8610 0.8609
2694.000000 0.8605 0.8594 0.8584 0.8572 0.8562
2689.000000 0.8551 0.8540 0.8529 0.8518 0.8510
2684.000000 0.8501 0.8494 0.8487 0.8479 0.8473
2679.000000 0.8466 0.8460 0.8453 0.8445 0.8439
2674.000000 0.8433 0.8429 0.8426 0.8422 0.8419
2669.000000 0.8416 0.8412 0.8408 0.8406 0.8406
2664.000000 0.8407 0.8407 0.8408 0.8408 0.8410
2659.000000 0.8411 0.8415 0.8432 0.8436 0.8448
2654.000000 0.8460 0.8471 0.8483 0.8488 0.8489
2649.000000 0.8502 0.8521 0.8539 0.8551 0.8554
2644.000000 0.8559 0.8571 0.8592 0.8592 0.8595
2639.000000 0.8602 0.8610 0.8616 0.8623 0.8630
2634.000000 0.8652 0.8657 0.8662 0.8652 0.8658
2629.000000 0.8674 0.8679 0.8682 0.8686 0.8689
2624.000000 0.8693 0.8697 0.8701 0.8704 0.8708
2619.000000 0.8711 0.8716 0.8719 0.8723 0.8727
2614.000000 0.8731 0.8735 0.8739 0.8743 0.8747
2609.000000 0.8751 0.8756 0.8760 0.8765 0.8768
2604.000000 0.8774 0.8778 0.8782 0.8786 0.8792
2599.000000 0.8796 0.8800 0.8804 0.8808 0.8813
2594.000000 0.8818 0.8821 0.8828 0.8832 0.8837
2589.000000 0.8841 0.8845 0.8850 0.8855 0.8859
2584.000000 0.8863 0.8869 0.8874 0.8878 0.8883
2579.000000 0.8888 0.8893 0.8897 0.8902 0.8908
2574.000000 0.8913 0.8918 0.8924 0.8931 0.8937
2569.000000 0.8943 0.8949 0.8954 0.8961 0.8966
2564.000000 0.8972 0.8979 0.8985 0.8990 0.8996
2559.000000 0.9002 0.9008 0.9013 0.9020 0.9025
2554.000000 0.9029 0.9036 0.9042 0.9047 0.9054
2549.000000 0.9059 0.9064 0.9069 0.9075 0.9081
2544.000000 0.9087 0.9093 0.9098 0.9102 0.9106
2539.000000 0.9111 0.9116 0.9120 0.9124 0.9127
2534.000000 0.9133 0.9137 0.9141 0.9145 0.9151
2529.000000 0.9155 0.9159 0.9163 0.9168 0.9171
2524.000000 0.9174 0.9177 0.9180 0.9182 0.9185
2519.000000 0.9188 0.9191 0.9194 0.9197 0.9199
2514.000000 0.9201 0.9203 0.9205 0.9207 0.9209
2509.000000 0.9210 0.9212 0.9214 0.9216 0.9217
2504.000000 0.9219 0.9220 0.9222 0.9224 0.9226
2499.000000 0.9228 0.9229 0.9230 0.9232 0.9233
2494.000000 0.9235 0.9236 0.9236 0.9238 0.9240
2489.000000 0.9240 0.9242 0.9243 0.9245 0.9246
2484.000000 0.9248 0.9248 0.9249 0.9261 0.9268
2479.000000 0.9268 0.9269 0.9269 0.9270 0.9271
2474.000000 0.9272 0.9272 0.9273 0.9274 0.9275
2469.000000 0.9275 0.9276 0.9276 0.9277 0.9278
2464.000000 0.9279 0.9280 0.9281 0.9281 0.9282
2459.000000 0.9283 0.9277 0.9277 0.9278 0.9270
2454.000000 0.9271 0.9283 0.9290 0.9291 0.9279
2449.000000 0.9289 0.9292 0.9292 0.9292 0.9292
2444.000000 0.9292 0.9292 0.9292 0.9292 0.9292
2439.000000 0.9292 0.9292 0.9292 0.9292 0.9292
2434.000000 0.9292 0.9292 0.9291 0.9290 0.9290
2429.000000 0.9290 0.9290 0.9289 0.9289 0.9289
2424.000000 0.9289 0.9288 0.9288 0.9288 0.9288
2419.000000 0.9287 0.9286 0.9285 0.9284 0.9282
2414.000000 0.9281 0.9278 0.9276 0.9273 0.9270
2409.000000 0.9270 0.9274 0.9264 0.9271 0.9267
2404.000000 0.9264 0.9261 0.9257 0.9253 0.9250
2399.000000 0.9247 0.9245 0.9242 0.9240 0.9238
2394.000000 0.9237 0.9235 0.9234 0.9232 0.9231
2389.000000 0.9247 0.9248 0.9248 0.9249 0.9252
2384.000000 0.9266 0.9266 0.9272 0.9284 0.9285
2379.000000 0.9291 0.9301 0.9308 0.9319 0.9320
2374.000000 0.9330 0.9338 0.9340 0.9341 0.9342
2369.000000 0.9331 0.9329 0.9330 0.9332 0.9333
2364.000000 0.9333 0.9333 0.9333 0.9333 0.9348
2359.000000 0.9348 0.9362 0.9364 0.9380 0.9392
2354.000000 0.9391 0.9390 0.9390 0.9382 0.9371
2349.000000 0.9370 0.9377 0.9392 0.9398 0.9397
2344.000000 0.9385 0.9379 0.9377 0.9375 0.9374
2339.000000 0.9358 0.9369 0.9368 0.9351 0.9344
2334.000000 0.9357 0.9351 0.9346 0.9343 0.9353
2329.000000 0.9348 0.9344 0.9335 0.9335 0.9325
2324.000000 0.9322 0.9306 0.9291 0.9277 0.9264
2319.000000 0.9261 0.9258 0.9254 0.9251 0.9249
2314.000000 0.9246 0.9242 0.9239 0.9235 0.9231
2309.000000 0.9228 0.9225 0.9222 0.9218 0.9214
2304.000000 0.9211 0.9208 0.9205 0.9202 0.9200
2299.000000 0.9202 0.9211 0.9208 0.9205 0.9205
2294.000000 0.9204 0.9203 0.9202 0.9201 0.9194
2289.000000 0.9199 0.9186 0.9181 0.9181 0.9181
2284.000000 0.9183 0.9172 0.9175 0.9179 0.9183
2279.000000 0.9186 0.9175 0.9179 0.9180 0.9171
2274.000000 0.9176 0.9180 0.9179 0.9172 0.9178
2269.000000 0.9174 0.9169 0.9174 0.9179 0.9174
2264.000000 0.9171 0.9175 0.9180 0.9172 0.9172
2259.000000 0.9175 0.9166 0.9166 0.9172 0.9176
2254.000000 0.9164 0.9167 0.9172 0.9174 0.9164
2249.000000 0.9168 0.9173 0.9176 0.9180 0.9179
2244.000000 0.9171 0.9174 0.9178 0.9179 0.9182
2239.000000 0.9185 0.9188 0.9190 0.9193 0.9186
2234.000000 0.9184 0.9186 0.9189 0.9191 0.9194
2229.000000 0.9196 0.9199 0.9202 0.9204 0.9206
2224.000000 0.9208 0.9208 0.9208 0.9197 0.9199
2219.000000 0.9199 0.9202 0.9204 0.9206 0.9208
2214.000000 0.9210 0.9212 0.9214 0.9215 0.9217
2209.000000 0.9219 0.9221 0.9222 0.9224 0.9226
2204.000000 0.9229 0.9230 0.9232 0.9233 0.9235
2199.000000 0.9235 0.9236 0.9236 0.9235 0.9223
2194.000000 0.9238 0.9234 0.9223 0.9223 0.9224
2189.000000 0.9224 0.9225 0.9225 0.9226 0.9226
2184.000000 0.9236 0.9233 0.9228 0.9228 0.9228
2179.000000 0.9228 0.9243 0.9246 0.9246 0.9246
2174.000000 0.9247 0.9247 0.9247 0.9247 0.9247
2169.000000 0.9245 0.9233 0.9233 0.9233 0.9233
2164.000000 0.9234 0.9234 0.9235 0.9235 0.9235
2159.000000 0.9235 0.9235 0.9235 0.9235 0.9237
2154.000000 0.9238 0.9238 0.9241 0.9242 0.9243
2149.000000 0.9244 0.9246 0.9247 0.9250 0.9251
2144.000000 0.9252 0.9253 0.9255 0.9256 0.9257
2139.000000 0.9258 0.9260 0.9261 0.9262 0.9263
2134.000000 0.9265 0.9266 0.9267 0.9268 0.9269
2129.000000 0.9270 0.9273 0.9274 0.9275 0.9276
2124.000000 0.9277 0.9278 0.9265 0.9278 0.9280
2119.000000 0.9282 0.9283 0.9283 0.9286 0.9287
2114.000000 0.9289 0.9290 0.9292 0.9293 0.9296
2109.000000 0.9297 0.9298 0.9299 0.9301 0.9302
2104.000000 0.9304 0.9305 0.9306 0.9307 0.9308
2099.000000 0.9308 0.9297 0.9294 0.9308 0.9311
2094.000000 0.9297 0.9310 0.9311 0.9311 0.9311
2089.000000 0.9310 0.9310 0.9309 0.9309 0.9309
2084.000000 0.9309 0.9309 0.9309 0.9309 0.9309
2079.000000 0.9309 0.9309 0.9309 0.9309 0.9309
2074.000000 0.9309 0.9307 0.9306 0.9303 0.9301
2069.000000 0.9299 0.9297 0.9295 0.9293 0.9290
2064.000000 0.9286 0.9282 0.9279 0.9275 0.9272
2059.000000 0.9267 0.9263 0.9263 0.9271 0.9265
2054.000000 0.9261 0.9257 0.9246 0.9241 0.9245
2049.000000 0.9232 0.9222 0.9217 0.9214 0.9210
2044.000000 0.9206 0.9201 0.9197 0.9196 0.9196
2039.000000 0.9199 0.9203 0.9207 0.9210 0.9213
2034.000000 0.9216 0.9218 0.9221 0.9223 0.9226
2029.000000 0.9229 0.9237 0.9242 0.9233 0.9239
2024.000000 0.9245 0.9242 0.9237 0.9233 0.9205
2019.000000 0.9226 0.9221 0.9218 0.9215 0.9211
2014.000000 0.9208 0.9205 0.9204 0.9204 0.9204
2009.000000 0.9204 0.9204 0.9205 0.9206 0.9207
2004.000000 0.9208 0.9210 0.9212 0.9215 0.9219
1999.000000 0.9223 0.9222 0.9217 0.9222 0.9225
1994.000000 0.9230 0.9235 0.9240 0.9249 0.9267
1989.000000 0.9285 0.9304 0.9323 0.9327 0.9336
1984.000000 0.9336 0.9336 0.9336 0.9336 0.9336
1979.000000 0.9335 0.9322 0.9324 0.9325 0.9327
1974.000000 0.9329 0.9332 0.9333 0.9335 0.9338
1969.000000 0.9341 0.9345 0.9348 0.9362 0.9364
1964.000000 0.9363 0.9377 0.9387 0.9412 0.9451
1959.000000 0.9487 0.9523 0.9522 0.9466 0.9403
1954.000000 0.9348 0.9352 0.9358 0.9363 0.9364
1949.000000 0.9356 0.9361 0.9361 0.9362 0.9361
1944.000000 0.9360 0.9359 0.9357 0.9356 0.9354
1939.000000 0.9353 0.9350 0.9348 0.9347 0.9344
1934.000000 0.9343 0.9341 0.9341 0.9343 0.9343
1929.000000 0.9344 0.9344 0.9344 0.9344 0.9346
1924.000000 0.9346 0.9347 0.9347 0.9347 0.9347
1919.000000 0.9346 0.9343 0.9340 0.9336 0.9332
1914.000000 0.9327 0.9322 0.9316 0.9311 0.9307
1909.000000 0.9307 0.9306 0.9318 0.9321 0.9321
1904.000000 0.9321 0.9320 0.9320 0.9320 0.9321
1899.000000 0.9322 0.9324 0.9326 0.9328 0.9330
1894.000000 0.9333 0.9336 0.9338 0.9334 0.9325
1889.000000 0.9327 0.9328 0.9329 0.9330 0.9331
1884.000000 0.9342 0.9349 0.9349 0.9348 0.9347
1879.000000 0.9347 0.9346 0.9344 0.9338 0.9350
1874.000000 0.9346 0.9341 0.9334 0.9326 0.9319
1869.000000 0.9313 0.9311 0.9311 0.9311 0.9311
1864.000000 0.9316 0.9320 0.9323 0.9328 0.9330
1859.000000 0.9326 0.9322 0.9327 0.9318 0.9309
1854.000000 0.9305 0.9301 0.9297 0.9294 0.9291
1849.000000 0.9287 0.9287 0.9287 0.9288 0.9289
1844.000000 0.9290 0.9291 0.9292 0.9293 0.9294
1839.000000 0.9295 0.9296 0.9298 0.9295 0.9287
1834.000000 0.9290 0.9292 0.9296 0.9298 0.9301
1829.000000 0.9303 0.9305 0.9306 0.9309 0.9311
1824.000000 0.9313 0.9316 0.9317 0.9318 0.9319
1819.000000 0.9336 0.9337 0.9338 0.9340 0.9342
1814.000000 0.9343 0.9345 0.9348 0.9349 0.9351
1809.000000 0.9346 0.9335 0.9336 0.9336 0.9335
1804.000000 0.9325 0.9317 0.9316 0.9315 0.9314
1799.000000 0.9313 0.9312 0.9315 0.9318 0.9320
1794.000000 0.9323 0.9325 0.9328 0.9330 0.9333
1789.000000 0.9337 0.9339 0.9342 0.9344 0.9347
1784.000000 0.9349 0.9352 0.9354 0.9357 0.9360
1779.000000 0.9363 0.9365 0.9367 0.9360 0.9356
1774.000000 0.9358 0.9359 0.9361 0.9348 0.9336
1769.000000 0.9324 0.9317 0.9315 0.9315 0.9318
1764.000000 0.9322 0.9325 0.9328 0.9331 0.9334
1759.000000 0.9340 0.9355 0.9357 0.9359 0.9361
1754.000000 0.9363 0.9365 0.9361 0.9356 0.9351
1749.000000 0.9344 0.9340 0.9337 0.9333 0.9329
1744.000000 0.9326 0.9322 0.9320 0.9316 0.9313
1739.000000 0.9310 0.9309 0.9306 0.9304 0.9302
1734.000000 0.9299 0.9297 0.9294 0.9292 0.9287
1729.000000 0.9280 0.9274 0.9267 0.9260 0.9262
1724.000000 0.9263 0.9268 0.9273 0.9279 0.9285
1719.000000 0.9289 0.9297 0.9305 0.9313 0.9312
1714.000000 0.9313 0.9312 0.9312 0.9315 0.9316
1709.000000 0.9318 0.9319 0.9321 0.9323 0.9326
1704.000000 0.9329 0.9331 0.9334 0.9334 0.9331
1699.000000 0.9329 0.9326 0.9322 0.9312 0.9299
1694.000000 0.9285 0.9273 0.9271 0.9269 0.9267
1689.000000 0.9265 0.9264 0.9263 0.9261 0.9259
1684.000000 0.9259 0.9255 0.9253 0.9249 0.9246
1679.000000 0.9242 0.9239 0.9236 0.9233 0.9229
1674.000000 0.9225 0.9229 0.9235 0.9231 0.9228
1669.000000 0.9227 0.9224 0.9221 0.9219 0.9216
1664.000000 0.9213 0.9210 0.9208 0.9205 0.9216
1659.000000 0.9200 0.9196 0.9206 0.9201 0.9198
1654.000000 0.9188 0.9172 0.9146 0.9145 0.9121
1649.000000 0.9097 0.9075 0.9058 0.9049 0.9048
1644.000000 0.9037 0.9038 0.9050 0.9060 0.9062
1639.000000 0.9063 0.9074 0.9081 0.9093 0.9099
1634.000000 0.9099 0.9113 0.9113 0.9127 0.9127
1629.000000 0.9142 0.9142 0.9154 0.9148 0.9137
1624.000000 0.9157 0.9165 0.9185 0.9191 0.9187
1619.000000 0.9197 0.9200 0.9199 0.9199 0.9199
1614.000000 0.9201 0.9200 0.9205 0.9221 0.9214
1609.000000 0.9219 0.9223 0.9216 0.9237 0.9223
1604.000000 0.9273 0.9291 0.9334 0.9329 0.9372
1599.000000 0.9293 0.9205 0.9118 0.9115 0.9094
1594.000000 0.9068 0.9034 0.9038 0.9051 0.9017
1589.000000 0.9009 0.8958 0.8857 0.8769 0.8766
1584.000000 0.8770 0.8776 0.8775 0.8784 0.8782
1579.000000 0.8787 0.8771 0.8770 0.8753 0.8734
1574.000000 0.8732 0.8716 0.8674 0.8670 0.8633
1569.000000 0.8600 0.8561 0.8535 0.8507 0.8354
1564.000000 0.8141 0.8090 0.8101 0.8122 0.8120
1559.000000 0.8072 0.7880 0.7844 0.7836 0.7893
1554.000000 0.7925 0.7995 0.8082 0.8154 0.8189
1549.000000 0.8173 0.8136 0.8097 0.8073 0.8024
1544.000000 0.7968 0.8104 0.8196 0.8226 0.8252
1539.000000 0.8253 0.8256 0.8219 0.8525 0.8587
1534.000000 0.8611 0.8611 0.8622 0.8606 0.8576
1529.000000 0.8566 0.8560 0.8552 0.8559 0.8566
1524.000000 0.8589 0.8596 0.8615 0.8620 0.8635
1519.000000 0.8644 0.8635 0.8646 0.8649 0.8641
1514.000000 0.8640 0.8629 0.8626 0.8605 0.8586
1509.000000 0.8572 0.8547 0.8521 0.8500 0.8479
1504.000000 0.8468 0.8453 0.8435 0.8426 0.8407
1499.000000 0.8392 0.8361 0.8334 0.8307 0.8287
1494.000000 0.8255 0.8235 0.8211 0.8186 0.8159
1489.000000 0.8133 0.8114 0.8081 0.8057 0.8025
1484.000000 0.7988 0.7950 0.7895 0.7800 0.6942
1479.000000 0.6786 0.6623 0.6461 0.6158 0.5978
1474.000000 0.5670 0.4475 0.3282 0.2090 0.1087
1469.000000 0.1156 0.1311 0.1468 0.1624 0.1785
1464.000000 0.1861 0.1910 0.1924 0.1943 0.1958
1459.000000 0.1973 0.1982 0.2093 0.2310 0.2705
1454.000000 0.3188 0.3608 0.4240 0.4605 0.4806
1449.000000 0.4935 0.5066 0.5202 0.5402 0.5585
1444.000000 0.5728 0.5869 0.6001 0.6087 0.6162
1439.000000 0.6246 0.6331 0.6441 0.6649 0.6950
1434.000000 0.7119 0.7256 0.7373 0.7492 0.7600
1429.000000 0.7707 0.7808 0.7889 0.7961 0.8023
1424.000000 0.8079 0.8138 0.8207 0.8276 0.8329
1419.000000 0.8374 0.8418 0.8451 0.8462 0.8486
1414.000000 0.8511 0.8535 0.8557 0.8579 0.8601
1409.000000 0.8622 0.8641 0.8658 0.8673 0.8688
1404.000000 0.8700 0.8712 0.8724 0.8739 0.8754
1399.000000 0.8768 0.8784 0.8793 0.8794 0.8795
1394.000000 0.8777 0.8754 0.8719 0.8686 0.8662
1389.000000 0.8622 0.8569 0.8521 0.8467 0.8304
1384.000000 0.8111 0.7271 0.6143 0.5024 0.4299
1379.000000 0.4300 0.4759 0.5341 0.5919 0.6494
1374.000000 0.7196 0.7339 0.7454 0.7503 0.7554
1369.000000 0.7605 0.7654 0.7718 0.7799 0.7883
1364.000000 0.7963 0.8043 0.8087 0.8132 0.8167
1359.000000 0.8202 0.8224 0.8238 0.8230 0.8236
1354.000000 0.8242 0.8246 0.8253 0.8265 0.8300
1349.000000 0.8332 0.8355 0.8348 0.8365 0.8353
1344.000000 0.8322 0.8273 0.8205 0.8079 0.8085
1339.000000 0.8080 0.8140 0.8229 0.8291 0.8352
1334.000000 0.8408 0.8461 0.8509 0.8539 0.8568
1329.000000 0.8576 0.8594 0.8611 0.8628 0.8625
1324.000000 0.8667 0.8639 0.8631 0.8633 0.8625
1319.000000 0.8613 0.8597 0.8584 0.8572 0.8551
1314.000000 0.8532 0.8511 0.8491 0.8471 0.8449
1309.000000 0.8426 0.8399 0.8375 0.8364 0.8354
1304.000000 0.8327 0.8316 0.8305 0.8291 0.8286
1299.000000 0.8282 0.8280 0.8277 0.8295 0.8319
1294.000000 0.8331 0.8343 0.8358 0.8373 0.8385
1289.000000 0.8407 0.8430 0.8451 0.8473 0.8494
1284.000000 0.8516 0.8538 0.8561 0.8582 0.8605
1279.000000 0.8627 0.8649 0.8674 0.8715 0.8740
1274.000000 0.8765 0.8790 0.8816 0.8842 0.8859
1269.000000 0.8875 0.8892 0.8914 0.8941 0.8960
1264.000000 0.8984 0.9010 0.9026 0.9043 0.9061
1259.000000 0.9078 0.9095 0.9112 0.9130 0.9145
1254.000000 0.9160 0.9161 0.9173 0.9188 0.9201
1249.000000 0.9216 0.9231 0.9246 0.9259 0.9271
1244.000000 0.9270 0.9283 0.9295 0.9309 0.9322
1239.000000 0.9341 0.9364 0.9378 0.9391 0.9404
1234.000000 0.9417 0.9438 0.9458 0.9470 0.9483
1229.000000 0.9494 0.9507 0.9520 0.9532 0.9543
1224.000000 0.9557 0.9568 0.9574 0.9581 0.9587
1219.000000 0.9593 0.9598 0.9606 0.9612 0.9618
1214.000000 0.9621 0.9629 0.9643 0.9646 0.9647
1209.000000 0.9647 0.9647 0.9646 0.9646 0.9645
1204.000000 0.9644 0.9644 0.9644 0.9643 0.9642
1199.000000 0.9641 0.9624 0.9620 0.9620 0.9619
1194.000000 0.9619 0.9637 0.9638 0.9640 0.9642
1189.000000 0.9645 0.9647 0.9650 0.9651 0.9653
1184.000000 0.9649 0.9638 0.9607 0.9583 0.9577
1179.000000 0.9570 0.9565 0.9554 0.9554 0.9556
1174.000000 0.9558 0.9559 0.9565 0.9570 0.9575
1169.000000 0.9581 0.9586 0.9609 0.9615 0.9618
1164.000000 0.9621 0.9625 0.9628 0.9631 0.9634
1159.000000 0.9636 0.9639 0.9642 0.9643 0.9645
1154.000000 0.9646 0.9647 0.9649 0.9640 0.9646
1149.000000 0.9653 0.9641 0.9637 0.9638 0.9638
1144.000000 0.9638 0.9622 0.9634 0.9620 0.9603
1139.000000 0.9606 0.9612 0.9616 0.9611 0.9622
1134.000000 0.9614 0.9596 0.9592 0.9591 0.9591
1129.000000 0.9585 0.9575 0.9586 0.9602 0.9618
1124.000000 0.9638 0.9662 0.9697 0.9727 0.9750
1119.000000 0.9769 0.9789 0.9808 0.9844 0.9865
1114.000000 0.9878 0.9887 0.9899 0.9909 0.9914
1109.000000 0.9915 0.9906 0.9920 0.9908 0.9908
1104.000000 0.9906 0.9880 0.9854 0.9807 0.9758
1099.000000 0.9719 0.9680 0.9633 0.9591 0.9575
1094.000000 0.9559 0.9543 0.9531 0.9521 0.9516
1089.000000 0.9514 0.9513 0.9512 0.9511 0.9510
1084.000000 0.9507 0.9507 0.9504 0.9490 0.9492
1079.000000 0.9490 0.9479 0.9475 0.9465 0.9465
1074.000000 0.9452 0.9438 0.9446 0.9445 0.9444
1069.000000 0.9448 0.9454 0.9459 0.9465 0.9472
1064.000000 0.9478 0.9484 0.9506 0.9512 0.9516
1059.000000 0.9502 0.9523 0.9525 0.9513 0.9518
1054.000000 0.9521 0.9525 0.9529 0.9537 0.9554
1049.000000 0.9557 0.9561 0.9565 0.9568 0.9572
1044.000000 0.9575 0.9580 0.9584 0.9587 0.9591
1039.000000 0.9594 0.9598 0.9601 0.9606 0.9609
1034.000000 0.9613 0.9616 0.9620 0.9623 0.9608
1029.000000 0.9608 0.9611 0.9613 0.9610 0.9598
1024.000000 0.9601 0.9601 0.9604 0.9605 0.9607
1019.000000 0.9609 0.9610 0.9612 0.9613 0.9615
1014.000000 0.9616 0.9617 0.9619 0.9620 0.9622
1009.000000 0.9623 0.9610 0.9608 0.9609 0.9609
1004.000000 0.9592 0.9593 0.9594 0.9594 0.9595
999.000000 0.9596 0.9592 0.9579 0.9579 0.9578
994.000000 0.9577 0.9576 0.9584 0.9593 0.9597
989.000000 0.9602 0.9606 0.9609 0.9616 0.9623
984.000000 0.9645 0.9644 0.9643 0.9649 0.9657
979.000000 0.9663 0.9670 0.9676 0.9684 0.9691
974.000000 0.9697 0.9699 0.9691 0.9708 0.9710
969.000000 0.9710 0.9709 0.9708 0.9706 0.9704
964.000000 0.9701 0.9699 0.9694 0.9687 0.9679
959.000000 0.9673 0.9666 0.9658 0.9654 0.9651
954.000000 0.9648 0.9645 0.9643 0.9641 0.9638
949.000000 0.9635 0.9633 0.9631 0.9630 0.9628
944.000000 0.9627 0.9625 0.9624 0.9622 0.9621
939.000000 0.9620 0.9620 0.9622 0.9624 0.9625
934.000000 0.9627 0.9629 0.9630 0.9632 0.9633
929.000000 0.9635 0.9636 0.9638 0.9639 0.9641
924.000000 0.9642 0.9644 0.9645 0.9646 0.9648
919.000000 0.9650 0.9662 0.9652 0.9665 0.9656
914.000000 0.9648 0.9639 0.9627 0.9615 0.9584
909.000000 0.9557 0.9541 0.9526 0.9507 0.9510
904.000000 0.9509 0.9505 0.9513 0.9511 0.9521
899.000000 0.9519 0.9529 0.9531 0.9531 0.9529
894.000000 0.9523 0.9504 0.9498 0.9484 0.9472
889.000000 0.9467 0.9482 0.9494 0.9513 0.9519
884.000000 0.9534 0.9539 0.9530 0.9525 0.9520
879.000000 0.9517 0.9516 0.9513 0.9515 0.9517
874.000000 0.9522 0.9526 0.9531 0.9533 0.9538
869.000000 0.9544 0.9550 0.9572 0.9577 0.9586
864.000000 0.9610 0.9630 0.9636 0.9649 0.9670
859.000000 0.9680 0.9685 0.9686 0.9677 0.9658
854.000000 0.9625 0.9579 0.9522 0.9457 0.9400
849.000000 0.9361 0.9364 0.9363 0.9396 0.9479
844.000000 0.9550 0.9557 0.9563 0.9558 0.9565
839.000000 0.9578 0.9570 0.9589 0.9577 0.9582
834.000000 0.9587 0.9578 0.9581 0.9575 0.9579
829.000000 0.9583 0.9571 0.9567 0.9563 0.9560
824.000000 0.9565 0.9570 0.9575 0.9566 0.9567
819.000000 0.9572 0.9576 0.9580 0.9601 0.9607
814.000000 0.9611 0.9616 0.9638 0.9659 0.9666
809.000000 0.9685 0.9687 0.9678 0.9689 0.9706
804.000000 0.9710 0.9714 0.9720 0.9724 0.9729
799.000000 0.9733 0.9733 0.9736 0.9737 0.9739
794.000000 0.9742 0.9717 0.9715 0.9727 0.9712
789.000000 0.9702 0.9687 0.9673 0.9648 0.9621
784.000000 0.9596 0.9566 0.9538 0.9520 0.9500
779.000000 0.9493 0.9481 0.9464 0.9461 0.9459
774.000000 0.9457 0.9447 0.9437 0.9436 0.9436
769.000000 0.9425 0.9421 0.9402 0.9377 0.9338
764.000000 0.9309 0.9298 0.9291 0.9282 0.9275
759.000000 0.9270 0.9267 0.9267 0.9270 0.9272
754.000000 0.9281 0.9299 0.9307 0.9314 0.9317
749.000000 0.9319 0.9320 0.9307 0.9291 0.9278
744.000000 0.9264 0.9219 0.9172 0.9123 0.9068
739.000000 0.9014 0.8961 0.8911 0.8861 0.8810
734.000000 0.8760 0.8708 0.8659 0.8610 0.8565
729.000000 0.8491 0.8415 0.8329 0.8240 0.8112
724.000000 0.7892 0.7676 0.7464 0.7249 0.7028
719.000000 0.6754 0.6756 0.7021 0.7280 0.7539
714.000000 0.7810 0.8041 0.8210 0.8354 0.8486
709.000000 0.8616 0.8710 0.8798 0.8883 0.8965
704.000000 0.9045 0.9131 0.9203 0.9256 0.9318
699.000000 0.9364 0.9408 0.9437 0.9467 0.9502
694.000000 0.9536 0.9557 0.9578 0.9600 0.9621
689.000000 0.9642 0.9673 0.9698 0.9709 0.9721
684.000000 0.9735 0.9756 0.9764 0.9770 0.9792
679.000000 0.9798 0.9839 0.9864 0.9905 0.9922
674.000000 0.9912 0.9924 0.9903 0.9907 0.9938
669.000000 1.0065 1.0153 1.0034 0.9932 0.9929
664.000000 0.9928 0.9919 0.9909 0.9911 0.9917
659.000000 0.9924 0.9917 0.9919 0.9912 0.9890
654.000000 0.9864 0.9842 0.9805 0.9786 0.9752
649.000000 0.9718 0.9690 0.9668 0.9644 0.9635
644.000000 0.9621 0.9598 0.9591 0.9578 0.9561
639.000000 0.9555 0.9539 0.9526 0.9531 0.9532
634.000000 0.9515 0.9514 0.9514 0.9509 0.9516
629.000000 0.9525 0.9517 0.9522 0.9513 0.9519
624.000000 0.9526 0.9516 0.9524 0.9531 0.9538
619.000000 0.9548 0.9567 0.9568 0.9561 0.9566
614.000000 0.9565 0.9559 0.9565 0.9569 0.9575
609.000000 0.9580 0.9586 0.9580 0.9576 0.9580
604.000000 0.9582 0.9586 0.9589 0.9592 0.9595
599.000000 0.9597 0.9601 0.9605 0.9606 0.9609
594.000000 0.9610 0.9611 0.9614 0.9616 0.9617
589.000000 0.9620 0.9622 0.9617 0.9616 0.9619
584.000000 0.9612 0.9613 0.9614 0.9614 0.9614
579.000000 0.9614 0.9614 0.9602 0.9597 0.9598
574.000000 0.9613 0.9616 0.9615 0.9616 0.9615
569.000000 0.9615 0.9612 0.9595 0.9597 0.9611
564.000000 0.9605 0.9591 0.9590 0.9589 0.9588
559.000000 0.9586 0.9585 0.9585 0.9582 0.9573
554.000000 0.9564 0.9561 0.9548 0.9554 0.9556
549.000000 0.9555 0.9552 0.9552 0.9550 0.9548
544.000000 0.9547 0.9544 0.9540 0.9538 0.9534
539.000000 0.9533 0.9545 0.9546 0.9550 0.9536
534.000000 0.9522 0.9524 0.9517 0.9508 0.9497
529.000000 0.9486 0.9475 0.9467 0.9468 0.9464
524.000000 0.9455 0.9446 0.9437 0.9428 0.9425
519.000000 0.9421 0.9419 0.9415 0.9413 0.9411
514.000000 0.9407 0.9405 0.9403 0.9400 0.9398
509.000000 0.9397 0.9394 0.9394 0.9393 0.9391
504.000000 0.9390 0.9388 0.9386 0.9386 0.9383
499.000000 0.9383 0.9382 0.9381 0.9379 0.9378
494.000000 0.9377 0.9376 0.9375 0.9375 0.9374
489.000000 0.9374 0.9373 0.9373 0.9373 0.9372
484.000000 0.9372 0.9371 0.9371 0.9371 0.9370
479.000000 0.9370 0.9369 0.9369 0.9369 0.9367
474.000000 0.9367 0.9367 0.9369 0.9369 0.9369
469.000000 0.9369 0.9370 0.9370 0.9370 0.9370
464.000000 0.9370 0.9371 0.9371 0.9371 0.9371
459.000000 0.9371 0.9372 0.9372 0.9372 0.9372
454.000000 0.9372 0.9372 0.9372 0.9372 0.9372
449.000000 0.9372 0.9372 0.9372 0.9372 0.9372
444.000000 0.9371 0.9371 0.9370 0.9370 0.9369
439.000000 0.9369 0.9367 0.9367 0.9366 0.9365
434.000000 0.9365 0.9364 0.9364 0.9363 0.9363
429.000000 0.9363 0.9362 0.9362 0.9362 0.9361
424.000000 0.9361 0.9360 0.9360 0.9357 0.9352
##END=
