##TITLE=n-PENTANE
##JCAMP-DX=4.24
##DATA TYPE=INFRARED SPECTRUM
##CLASS=COBLENTZ
##ORIGIN=DOW CHEMICAL COMPANY
##OWNER=COBLENTZ SOCIETY
Collection (C) 2018 copyright by the U.S. Secretary of Commerce
on behalf of the United States of America. All rights reserved.
##DATE=1976/02/11
##NAMES=pentane
##CAS REGISTRY NO=109-66-0
##MOLFORM=C5 H12
##BP=36 C
##SOURCE REFERENCE=COBLENTZ NO. 10475
##$NIST SOURCE=COBLENTZ
##$NIST IMAGE=cob-r10475
##SPECTROMETER/DATA SYSTEM=PERKIN-ELMER 180
##INSTRUMENT PARAMETERS=I0 MODE
##STATE=GAS (6 mmHg, N2 ADDED, TOTAL PRESSURE 600 mmHg)
##PATH LENGTH=18 CM
##SAMPLING PROCEDURE=TRANSMISSION
##RESOLUTION=1 CM^-^1 AT 4000
##DATA PROCESSING=DIGITIZED BY NIST FROM HARD COPY (FROM TWO SEGMENTS)
##XUNITS=1/CM
##YUNITS=TRANSMITTANCE
##XFACTOR=1.000000
##YFACTOR=1
##DELTAX=1.523822
##FIRSTX=401.524
##LASTX=3999.27
##FIRSTY=0.579
##MAXX=3999.27
##MINX=401.524
##MAXY=0.861
##MINY=0.045
##NPOINTS=2362
##XYDATA=(X++(Y..Y))
401.524000 0.5790 0.5860 0.5880 0.5970 0.6040
409.143110 0.6120 0.6209 0.6329 0.6360 0.6410
416.762221 0.6500 0.6550 0.6730 0.6820 0.6890
424.381331 0.6970 0.7000 0.7030 0.7109 0.7170
432.000442 0.7230 0.7270 0.7340 0.7400 0.7430
439.619552 0.7470 0.7500 0.7520 0.7550 0.7560
447.238663 0.7610 0.7640 0.7700 0.7750 0.7790
454.857773 0.7820 0.7850 0.7880 0.7910 0.7940
462.476884 0.7960 0.7990 0.8000 0.8000 0.8020
470.095994 0.8050 0.8080 0.8110 0.8130 0.8140
477.715104 0.8190 0.8220 0.8250 0.8260 0.8280
485.334215 0.8290 0.8310 0.8340 0.8350 0.8370
492.953325 0.8380 0.8380 0.8380 0.8380 0.8400
500.572436 0.8410 0.8410 0.8410 0.8410 0.8410
508.191546 0.8430 0.8440 0.8460 0.8460 0.8460
515.810657 0.8460 0.8460 0.8460 0.8460 0.8460
523.429767 0.8480 0.8480 0.8480 0.8480 0.8490
531.048878 0.8510 0.8510 0.8510 0.8520 0.8520
538.667988 0.8520 0.8520 0.8520 0.8520 0.8520
546.287099 0.8520 0.8520 0.8520 0.8520 0.8520
553.906209 0.8520 0.8520 0.8520 0.8520 0.8520
561.525319 0.8520 0.8540 0.8540 0.8540 0.8550
569.144430 0.8550 0.8550 0.8570 0.8570 0.8570
576.763540 0.8570 0.8570 0.8550 0.8550 0.8520
584.382651 0.8510 0.8510 0.8490 0.8490 0.8510
592.001761 0.8520 0.8520 0.8540 0.8540 0.8550
599.620872 0.8550 0.8550 0.8540 0.8540 0.8540
607.239982 0.8520 0.8520 0.8520 0.8520 0.8520
614.859093 0.8520 0.8520 0.8520 0.8520 0.8520
622.478203 0.8520 0.8520 0.8520 0.8520 0.8520
630.097313 0.8520 0.8520 0.8540 0.8540 0.8550
637.716424 0.8550 0.8550 0.8570 0.8570 0.8600
645.335534 0.8610 0.8610 0.8610 0.8610 0.8610
652.954645 0.8600 0.8600 0.8580 0.8580 0.8580
660.573755 0.8580 0.8570 0.8540 0.8520 0.8510
668.192866 0.8510 0.8510 0.8510 0.8510 0.8510
675.811976 0.8520 0.8520 0.8520 0.8550 0.8550
683.431087 0.8550 0.8550 0.8540 0.8540 0.8520
691.050197 0.8520 0.8510 0.8510 0.8490 0.8490
698.669307 0.8490 0.8490 0.8480 0.8460 0.8460
706.288418 0.8440 0.8410 0.8410 0.8400 0.8380
713.907528 0.8340 0.8320 0.8290 0.8260 0.8260
721.526639 0.8250 0.8230 0.8220 0.8200 0.8190
729.145749 0.8190 0.8190 0.8190 0.8190 0.8190
736.764860 0.8200 0.8200 0.8200 0.8220 0.8220
744.383970 0.8250 0.8280 0.8290 0.8310 0.8310
752.003081 0.8320 0.8340 0.8340 0.8320 0.8320
759.622191 0.8320 0.8320 0.8340 0.8340 0.8340
767.241301 0.8340 0.8340 0.8340 0.8340 0.8340
774.860412 0.8340 0.8340 0.8350 0.8350 0.8350
782.479522 0.8350 0.8370 0.8380 0.8380 0.8400
790.098633 0.8400 0.8400 0.8400 0.8400 0.8410
797.717743 0.8410 0.8410 0.8410 0.8430 0.8430
805.336854 0.8430 0.8430 0.8430 0.8430 0.8410
812.955964 0.8410 0.8430 0.8430 0.8440 0.8440
820.575075 0.8440 0.8440 0.8430 0.8430 0.8430
828.194185 0.8440 0.8430 0.8430 0.8410 0.8410
835.813296 0.8400 0.8400 0.8400 0.8400 0.8410
843.432406 0.8430 0.8430 0.8410 0.8400 0.8400
851.051516 0.8380 0.8380 0.8370 0.8350 0.8350
858.670627 0.8350 0.8350 0.8340 0.8340 0.8340
866.289737 0.8320 0.8320 0.8340 0.8350 0.8350
873.908848 0.8380 0.8400 0.8410 0.8410 0.8430
881.527958 0.8430 0.8410 0.8410 0.8400 0.8400
889.147069 0.8400 0.8400 0.8400 0.8380 0.8340
896.766179 0.8310 0.8310 0.8290 0.8280 0.8280
904.385290 0.8260 0.8250 0.8230 0.8220 0.8200
912.004400 0.8200 0.8170 0.8160 0.8160 0.8160
919.623510 0.8170 0.8200 0.8230 0.8260 0.8310
927.242621 0.8320 0.8340 0.8340 0.8350 0.8380
934.861731 0.8410 0.8430 0.8440 0.8460 0.8490
942.480842 0.8490 0.8510 0.8510 0.8480 0.8480
950.099952 0.8460 0.8460 0.8460 0.8460 0.8480
957.719063 0.8480 0.8510 0.8510 0.8510 0.8510
965.338173 0.8520 0.8510 0.8480 0.8480 0.8460
972.957284 0.8480 0.8490 0.8510 0.8490 0.8460
980.576394 0.8430 0.8410 0.8410 0.8410 0.8410
988.195504 0.8430 0.8430 0.8430 0.8410 0.8410
995.814615 0.8410 0.8410 0.8410 0.8410 0.8400
1003.433725 0.8400 0.8380 0.8380 0.8350 0.8350
1011.052836 0.8350 0.8340 0.8340 0.8340 0.8320
1018.671946 0.8290 0.8290 0.8290 0.8290 0.8290
1026.291057 0.8290 0.8290 0.8290 0.8290 0.8310
1033.910167 0.8310 0.8320 0.8320 0.8320 0.8320
1041.529278 0.8340 0.8340 0.8340 0.8350 0.8350
1049.148388 0.8370 0.8370 0.8370 0.8380 0.8380
1056.767498 0.8370 0.8370 0.8340 0.8340 0.8320
1064.386609 0.8320 0.8310 0.8310 0.8310 0.8290
1072.005719 0.8290 0.8290 0.8310 0.8310 0.8310
1079.624830 0.8320 0.8320 0.8340 0.8340 0.8340
1087.243940 0.8340 0.8350 0.8350 0.8370 0.8380
1094.863051 0.8380 0.8370 0.8350 0.8350 0.8370
1102.482161 0.8370 0.8350 0.8370 0.8350 0.8350
1110.101272 0.8340 0.8340 0.8340 0.8320 0.8320
1117.720382 0.8310 0.8310 0.8290 0.8280 0.8260
1125.339493 0.8260 0.8260 0.8250 0.8250 0.8250
1132.958603 0.8260 0.8260 0.8280 0.8280 0.8290
1140.577713 0.8290 0.8290 0.8290 0.8290 0.8280
1148.196824 0.8260 0.8260 0.8250 0.8250 0.8260
1155.815934 0.8290 0.8290 0.8310 0.8320 0.8340
1163.435045 0.8350 0.8350 0.8370 0.8370 0.8380
1171.054155 0.8380 0.8370 0.8370 0.8380 0.8380
1178.673266 0.8380 0.8380 0.8400 0.8410 0.8410
1186.292376 0.8400 0.8380 0.8380 0.8380 0.8370
1193.911487 0.8350 0.8340 0.8320 0.8320 0.8340
1201.530597 0.8340 0.8340 0.8340 0.8340 0.8320
1209.149707 0.8320 0.8320 0.8320 0.8320 0.8320
1216.768818 0.8320 0.8320 0.8310 0.8290 0.8290
1224.387928 0.8290 0.8290 0.8290 0.8290 0.8290
1232.007039 0.8290 0.8290 0.8290 0.8280 0.8280
1239.626149 0.8280 0.8280 0.8280 0.8290 0.8290
1247.245260 0.8310 0.8310 0.8290 0.8260 0.8250
1254.864370 0.8220 0.8200 0.8200 0.8220 0.8230
1262.483481 0.8260 0.8260 0.8250 0.8250 0.8250
1270.102591 0.8260 0.8280 0.8280 0.8290 0.8290
1277.721701 0.8290 0.8310 0.8320 0.8320 0.8320
1285.340812 0.8340 0.8340 0.8340 0.8320 0.8310
1292.959922 0.8290 0.8290 0.8290 0.8290 0.8280
1300.579033 0.8230 0.8220 0.8220 0.8230 0.8230
1308.198143 0.8250 0.8260 0.8260 0.8250 0.8250
1315.817254 0.8250 0.8260 0.8260 0.8260 0.8260
1323.436364 0.8260 0.8260 0.8250 0.8230 0.8220
1331.055475 0.8170 0.8130 0.8110 0.8100 0.8100
1338.674585 0.8100 0.8100 0.8100 0.8100 0.8100
1346.293696 0.8080 0.8060 0.8050 0.8020 0.7990
1353.912806 0.7940 0.7910 0.7870 0.7820 0.7780
1361.531916 0.7750 0.7700 0.7650 0.7610 0.7560
1369.151027 0.7470 0.7380 0.7320 0.7260 0.7230
1376.770137 0.7210 0.7230 0.7240 0.7260 0.7260
1384.389248 0.7240 0.7240 0.7260 0.7310 0.7440
1392.008358 0.7550 0.7620 0.7670 0.7730 0.7780
1399.627469 0.7840 0.7910 0.7960 0.8020 0.8050
1407.246579 0.8060 0.8060 0.8080 0.8100 0.8100
1414.865690 0.8100 0.8080 0.8060 0.8050 0.8030
1422.484800 0.7990 0.7970 0.7960 0.7930 0.7880
1430.103910 0.7790 0.7700 0.7610 0.7520 0.7430
1437.723021 0.7350 0.7290 0.7210 0.7110 0.6990
1445.342131 0.6860 0.6730 0.6670 0.6590 0.6450
1452.961242 0.6349 0.6240 0.6180 0.6130 0.5980
1460.580352 0.5920 0.5920 0.5970 0.6000 0.6100
1468.199463 0.6120 0.6150 0.6240 0.6330 0.6420
1475.818573 0.6500 0.6550 0.6760 0.6860 0.6970
1483.437684 0.7091 0.7201 0.7310 0.7400 0.7500
1491.056794 0.7590 0.7670 0.7730 0.7790 0.7840
1498.675904 0.7851 0.7940 0.8000 0.8060 0.8140
1506.295015 0.8140 0.8170 0.8200 0.8220 0.8260
1513.914125 0.8280 0.8290 0.8310 0.8310 0.8320
1521.533236 0.8320 0.8340 0.8320 0.8320 0.8320
1529.152346 0.8320 0.8320 0.8320 0.8310 0.8310
1536.771457 0.8310 0.8290 0.8290 0.8290 0.8290
1544.390567 0.8290 0.8290 0.8290 0.8290 0.8290
1552.009678 0.8290 0.8280 0.8260 0.8260 0.8260
1559.628788 0.8250 0.8250 0.8230 0.8220 0.8220
1567.247898 0.8200 0.8190 0.8170 0.8160 0.8130
1574.867009 0.8130 0.8130 0.8110 0.8110 0.8110
1582.486119 0.8110 0.8110 0.8110 0.8110 0.8130
1590.105230 0.8130 0.8140 0.8140 0.8140 0.8160
1597.724340 0.8160 0.8160 0.8160 0.8160 0.8160
1605.343451 0.8170 0.8190 0.8190 0.8200 0.8200
1612.962561 0.8200 0.8200 0.8200 0.8200 0.8200
1620.581672 0.8200 0.8200 0.8200 0.8200 0.8200
1628.200782 0.8190 0.8190 0.8170 0.8170 0.8160
1635.819893 0.8160 0.8140 0.8130 0.8110 0.8100
1643.439003 0.8080 0.8080 0.8080 0.8100 0.8110
1651.058113 0.8130 0.8160 0.8170 0.8220 0.8250
1658.677224 0.8250 0.8260 0.8280 0.8290 0.8310
1666.296334 0.8310 0.8310 0.8310 0.8310 0.8310
1673.915445 0.8310 0.8310 0.8310 0.8320 0.8320
1681.534555 0.8320 0.8320 0.8340 0.8350 0.8350
1689.153666 0.8370 0.8370 0.8370 0.8370 0.8370
1696.772776 0.8370 0.8350 0.8350 0.8350 0.8340
1704.391887 0.8340 0.8340 0.8340 0.8340 0.8340
1712.010997 0.8340 0.8320 0.8310 0.8290 0.8280
1719.630107 0.8280 0.8280 0.8310 0.8310 0.8310
1727.249218 0.8290 0.8280 0.8280 0.8260 0.8260
1734.868328 0.8260 0.8260 0.8260 0.8260 0.8260
1742.487439 0.8280 0.8280 0.8290 0.8290 0.8310
1750.106549 0.8320 0.8320 0.8320 0.8320 0.8320
1757.725660 0.8320 0.8320 0.8320 0.8340 0.8340
1765.344770 0.8350 0.8350 0.8350 0.8350 0.8350
1772.963881 0.8370 0.8380 0.8400 0.8410 0.8410
1780.582991 0.8380 0.8380 0.8400 0.8400 0.8400
1788.202101 0.8400 0.8400 0.8400 0.8410 0.8410
1795.821212 0.8400 0.8400 0.8400 0.8400 0.8410
1803.440322 0.8410 0.8430 0.8410 0.8410 0.8410
1811.059433 0.8400 0.8410 0.8410 0.8410 0.8410
1818.678543 0.8410 0.8410 0.8410 0.8410 0.8410
1826.297654 0.8430 0.8430 0.8430 0.8430 0.8430
1833.916764 0.8430 0.8430 0.8430 0.8440 0.8440
1841.535875 0.8440 0.8440 0.8440 0.8440 0.8440
1849.154985 0.8440 0.8440 0.8440 0.8440 0.8440
1856.774095 0.8440 0.8440 0.8440 0.8440 0.8440
1864.393206 0.8430 0.8430 0.8430 0.8430 0.8430
1872.012316 0.8430 0.8430 0.8430 0.8430 0.8430
1879.631427 0.8430 0.8430 0.8430 0.8430 0.8430
1887.250537 0.8410 0.8400 0.8400 0.8400 0.8410
1894.869648 0.8410 0.8410 0.8400 0.8400 0.8400
1902.488758 0.8400 0.8400 0.8400 0.8400 0.8400
1910.107869 0.8400 0.8400 0.8400 0.8400 0.8400
1917.726979 0.8400 0.8400 0.8400 0.8410 0.8430
1925.346090 0.8430 0.8440 0.8440 0.8430 0.8410
1932.965200 0.8410 0.8410 0.8410 0.8410 0.8410
1940.584310 0.8400 0.8400 0.8410 0.8410 0.8410
1948.203421 0.8400 0.8400 0.8400 0.8400 0.8400
1955.822531 0.8400 0.8400 0.8430 0.8430 0.8430
1963.441642 0.8430 0.8410 0.8410 0.8400 0.8400
1971.060752 0.8380 0.8380 0.8400 0.8410 0.8410
1978.679863 0.8430 0.8430 0.8410 0.8400 0.8400
1986.298973 0.8400 0.8380 0.8400 0.8400 0.8400
1993.918084 0.8400 0.8410 0.8400 0.8400 0.8400
2001.537194 0.8400 0.8400 0.8400 0.8400 0.8400
2009.156304 0.8400 0.8400 0.8400 0.8400 0.8400
2016.775415 0.8400 0.8399 0.8389 0.8380 0.8380
2024.394525 0.8380 0.8380 0.8379 0.8374 0.8370
2032.013636 0.8370 0.8370 0.8370 0.8370 0.8370
2039.632746 0.8370 0.8370 0.8370 0.8370 0.8370
2047.251857 0.8370 0.8370 0.8370 0.8370 0.8370
2054.870967 0.8370 0.8370 0.8370 0.8370 0.8370
2062.490078 0.8370 0.8370 0.8370 0.8370 0.8370
2070.109188 0.8370 0.8370 0.8370 0.8370 0.8370
2077.728298 0.8370 0.8370 0.8370 0.8370 0.8370
2085.347409 0.8370 0.8370 0.8370 0.8370 0.8370
2092.966519 0.8370 0.8374 0.8379 0.8380 0.8380
2100.585630 0.8380 0.8380 0.8380 0.8380 0.8380
2108.204740 0.8380 0.8388 0.8399 0.8400 0.8400
2115.823851 0.8400 0.8400 0.8400 0.8400 0.8386
2123.442961 0.8371 0.8370 0.8370 0.8370 0.8370
2131.062072 0.8370 0.8370 0.8370 0.8371 0.8386
2138.681182 0.8400 0.8400 0.8400 0.8400 0.8400
2146.300293 0.8400 0.8399 0.8388 0.8380 0.8380
2153.919403 0.8379 0.8374 0.8370 0.8370 0.8370
2161.538513 0.8370 0.8370 0.8370 0.8370 0.8370
2169.157624 0.8367 0.8357 0.8350 0.8350 0.8350
2176.776734 0.8350 0.8350 0.8350 0.8350 0.8350
2184.395845 0.8350 0.8350 0.8350 0.8350 0.8350
2192.014955 0.8350 0.8355 0.8365 0.8373 0.8378
2199.634066 0.8377 0.8372 0.8370 0.8370 0.8370
2207.253176 0.8370 0.8370 0.8370 0.8370 0.8370
2214.872287 0.8370 0.8370 0.8363 0.8353 0.8346
2222.491397 0.8341 0.8333 0.8323 0.8320 0.8320
2230.110507 0.8328 0.8338 0.8352 0.8367 0.8370
2237.729618 0.8370 0.8370 0.8370 0.8348 0.8323
2245.348728 0.8329 0.8339 0.8354 0.8369 0.8375
2252.967839 0.8380 0.8380 0.8380 0.8380 0.8380
2260.586949 0.8360 0.8340 0.8325 0.8310 0.8310
2268.206060 0.8310 0.8310 0.8310 0.8310 0.8310
2275.825170 0.8310 0.8310 0.8310 0.8313 0.8334
2283.444281 0.8350 0.8350 0.8349 0.8344 0.8340
2291.063391 0.8340 0.8337 0.8327 0.8319 0.8314
2298.682501 0.8307 0.8297 0.8290 0.8290 0.8299
2306.301612 0.8324 0.8340 0.8340 0.8340 0.8340
2313.920722 0.8336 0.8326 0.8318 0.8313 0.8305
2321.539833 0.8295 0.8288 0.8282 0.8280 0.8280
2329.158943 0.8280 0.8280 0.8280 0.8280 0.8280
2336.778054 0.8280 0.8274 0.8264 0.8260 0.8260
2344.397164 0.8270 0.8285 0.8297 0.8307 0.8310
2352.016275 0.8310 0.8299 0.8284 0.8273 0.8262
2359.635385 0.8260 0.8260 0.8260 0.8260 0.8260
2367.254495 0.8260 0.8269 0.8279 0.8280 0.8280
2374.873606 0.8285 0.8290 0.8299 0.8309 0.8324
2382.492716 0.8339 0.8340 0.8340 0.8330 0.8320
2390.111827 0.8320 0.8320 0.8315 0.8309 0.8294
2397.730937 0.8279 0.8269 0.8260 0.8260 0.8260
2405.350048 0.8260 0.8261 0.8272 0.8280 0.8280
2412.969158 0.8280 0.8280 0.8280 0.8280 0.8280
2420.588269 0.8280 0.8281 0.8286 0.8293 0.8303
2428.207379 0.8310 0.8310 0.8310 0.8310 0.8310
2435.826490 0.8310 0.8306 0.8296 0.8290 0.8290
2443.445600 0.8288 0.8283 0.8276 0.8265 0.8260
2451.064710 0.8260 0.8265 0.8275 0.8280 0.8280
2458.683821 0.8283 0.8288 0.8290 0.8290 0.8290
2466.302931 0.8290 0.8290 0.8290 0.8296 0.8307
2473.922042 0.8310 0.8310 0.8310 0.8310 0.8310
2481.541152 0.8310 0.8310 0.8310 0.8310 0.8310
2489.160263 0.8310 0.8310 0.8310 0.8310 0.8310
2496.779373 0.8310 0.8310 0.8310 0.8301 0.8291
2504.398484 0.8290 0.8290 0.8290 0.8290 0.8290
2512.017594 0.8290 0.8290 0.8290 0.8290 0.8290
2519.636704 0.8290 0.8290 0.8290 0.8290 0.8290
2527.255815 0.8290 0.8290 0.8290 0.8290 0.8290
2534.874925 0.8290 0.8290 0.8290 0.8290 0.8290
2542.494036 0.8290 0.8290 0.8290 0.8290 0.8290
2550.113146 0.8290 0.8289 0.8284 0.8280 0.8280
2557.732257 0.8277 0.8267 0.8263 0.8273 0.8280
2565.351367 0.8280 0.8276 0.8266 0.8258 0.8253
2572.970478 0.8250 0.8250 0.8250 0.8250 0.8250
2580.589588 0.8250 0.8245 0.8235 0.8230 0.8230
2588.208698 0.8227 0.8222 0.8220 0.8220 0.8214
2595.827809 0.8204 0.8197 0.8192 0.8190 0.8190
2603.446919 0.8183 0.8173 0.8166 0.8161 0.8149
2611.066030 0.8134 0.8130 0.8130 0.8130 0.8130
2618.685140 0.8134 0.8139 0.8140 0.8140 0.8140
2626.304251 0.8140 0.8140 0.8140 0.8149 0.8159
2633.923361 0.8160 0.8160 0.8151 0.8140 0.8140
2641.542472 0.8140 0.8150 0.8160 0.8165 0.8170
2649.161582 0.8170 0.8170 0.8170 0.8170 0.8170
2656.780692 0.8170 0.8170 0.8170 0.8164 0.8160
2664.399803 0.8160 0.8160 0.8160 0.8158 0.8148
2672.018913 0.8140 0.8140 0.8139 0.8134 0.8130
2679.638024 0.8130 0.8127 0.8117 0.8110 0.8110
2687.257134 0.8113 0.8123 0.8130 0.8130 0.8130
2694.876245 0.8130 0.8130 0.8130 0.8130 0.8130
2702.495355 0.8130 0.8130 0.8130 0.8130 0.8130
2710.114466 0.8130 0.8125 0.8115 0.8110 0.8110
2717.733576 0.8107 0.8102 0.8100 0.8100 0.8094
2725.352687 0.8084 0.8074 0.8063 0.8047 0.8027
2732.971797 0.8013 0.8003 0.7986 0.7966 0.7960
2740.590907 0.7960 0.7949 0.7934 0.7930 0.7930
2748.210018 0.7934 0.7939 0.7948 0.7958 0.7964
2755.829128 0.7969 0.7983 0.7998 0.8009 0.8019
2763.448239 0.8020 0.8020 0.8020 0.8020 0.8025
2771.067349 0.8030 0.8030 0.8030 0.8030 0.8030
2778.686460 0.8025 0.8020 0.8020 0.8019 0.8009
2786.305570 0.7998 0.7983 0.7970 0.7970 0.7969
2793.924681 0.7964 0.7958 0.7948 0.7939 0.7934
2801.543791 0.7928 0.7918 0.7905 0.7885 0.7868
2809.162901 0.7857 0.7846 0.7831 0.7815 0.7800
2816.782012 0.7785 0.7770 0.7755 0.7739 0.7703
2824.401122 0.7633 0.7570 0.7519 0.7471 0.7426
2832.020233 0.7356 0.7255 0.7165 0.7089 0.7002
2839.639343 0.6901 0.6796 0.6689 0.6535 0.6343
2847.258454 0.6162 0.5990 0.5813 0.5631 0.5446
2854.877564 0.5259 0.5050 0.4828 0.4605 0.4383
2862.496675 0.4157 0.3930 0.3762 0.3621 0.3494
2870.115785 0.3372 0.3254 0.3136 0.3015 0.2894
2877.734895 0.2655 0.2387 0.2340 0.2340 0.2434
2885.354006 0.2545 0.2582 0.2607 0.2623 0.2639
2892.973116 0.2645 0.2650 0.2683 0.2718 0.3031
2900.592227 0.3359 0.3315 0.3259 0.3209 0.3159
2908.211337 0.3134 0.3107 0.3051 0.2984 0.2771
2915.830448 0.2565 0.2408 0.2259 0.2163 0.2062
2923.449558 0.1930 0.1803 0.1697 0.1586 0.1455
2931.068669 0.1323 0.1190 0.1086 0.1071 0.1060
2938.687779 0.1060 0.1057 0.1047 0.1038 0.1033
2946.306890 0.1030 0.1030 0.1026 0.1016 0.1008
2953.926000 0.1003 0.0988 0.0958 0.0888 0.0762
2961.545110 0.0637 0.0514 0.0450 0.0450 0.0458
2969.164221 0.0473 0.0512 0.0572 0.0633 0.0694
2976.783331 0.0743 0.0783 0.0880 0.1016 0.1196
2984.402442 0.1403 0.1654 0.1932 0.2517 0.3270
2992.021552 0.3739 0.4067 0.4338 0.4585 0.4773
2999.640663 0.4940 0.5765 0.6801 0.7140 0.7282
3007.259773 0.7399 0.7510 0.7538 0.7548 0.7592
3014.878884 0.7643 0.7659 0.7669 0.7683 0.7699
3022.497994 0.7709 0.7720 0.7725 0.7730 0.7745
3030.117104 0.7760 0.7760 0.7760 0.7770 0.7780
3037.736215 0.7780 0.7780 0.7780 0.7780 0.7785
3045.355325 0.7790 0.7790 0.7790 0.7790 0.7791
3052.974436 0.7802 0.7811 0.7816 0.7820 0.7820
3060.593546 0.7822 0.7832 0.7841 0.7846 0.7850
3068.212657 0.7850 0.7853 0.7863 0.7872 0.7877
3075.831767 0.7880 0.7880 0.7880 0.7880 0.7884
3083.450878 0.7894 0.7906 0.7922 0.7930 0.7930
3091.069988 0.7937 0.7952 0.7962 0.7967 0.7975
3098.689098 0.7985 0.7993 0.7998 0.8000 0.8000
3106.308209 0.7997 0.7992 0.7990 0.7990 0.7990
3113.927319 0.7990 0.7990 0.7990 0.7993 0.7998
3121.546430 0.8000 0.8000 0.8000 0.8000 0.8000
3129.165540 0.8000 0.8000 0.8000 0.8000 0.8000
3136.784651 0.7996 0.7991 0.7990 0.7990 0.7981
3144.403761 0.7971 0.7966 0.7960 0.7960 0.7960
3152.022872 0.7951 0.7941 0.7935 0.7930 0.7930
3159.641982 0.7930 0.7920 0.7910 0.7910 0.7910
3167.261092 0.7910 0.7910 0.7910 0.7910 0.7905
3174.880203 0.7900 0.7900 0.7900 0.7900 0.7898
3182.499313 0.7888 0.7880 0.7880 0.7880 0.7880
3190.118424 0.7880 0.7880 0.7880 0.7880 0.7880
3197.737534 0.7880 0.7883 0.7893 0.7902 0.7907
3205.356645 0.7914 0.7924 0.7932 0.7937 0.7944
3212.975755 0.7954 0.7960 0.7960 0.7962 0.7967
3220.594866 0.7970 0.7970 0.7970 0.7970 0.7970
3228.213976 0.7970 0.7970 0.7970 0.7970 0.7970
3235.833087 0.7970 0.7970 0.7970 0.7970 0.7970
3243.452197 0.7970 0.7970 0.7970 0.7970 0.7970
3251.071307 0.7967 0.7961 0.7960 0.7960 0.7960
3258.690418 0.7960 0.7960 0.7960 0.7960 0.7960
3266.309528 0.7960 0.7960 0.7952 0.7941 0.7940
3273.928639 0.7940 0.7936 0.7930 0.7921 0.7911
3281.547749 0.7910 0.7910 0.7905 0.7900 0.7900
3289.166860 0.7900 0.7900 0.7900 0.7905 0.7910
3296.785970 0.7910 0.7910 0.7910 0.7910 0.7904
3304.405081 0.7899 0.7889 0.7880 0.7880 0.7879
3312.024191 0.7874 0.7870 0.7870 0.7870 0.7870
3319.643301 0.7870 0.7870 0.7870 0.7870 0.7870
3327.262412 0.7870 0.7872 0.7877 0.7880 0.7880
3334.881522 0.7884 0.7894 0.7902 0.7907 0.7908
3342.500633 0.7903 0.7900 0.7900 0.7896 0.7886
3350.119743 0.7878 0.7873 0.7870 0.7870 0.7865
3357.738854 0.7855 0.7850 0.7850 0.7850 0.7850
3365.357964 0.7850 0.7850 0.7850 0.7850 0.7850
3372.977075 0.7850 0.7850 0.7850 0.7847 0.7842
3380.596185 0.7840 0.7840 0.7840 0.7840 0.7832
3388.215295 0.7822 0.7820 0.7820 0.7816 0.7811
3395.834406 0.7810 0.7810 0.7810 0.7810 0.7810
3403.453516 0.7810 0.7810 0.7810 0.7815 0.7820
3411.072627 0.7829 0.7839 0.7845 0.7850 0.7860
3418.691737 0.7870 0.7870 0.7870 0.7875 0.7880
3426.310848 0.7891 0.7900 0.7900 0.7900 0.7900
3433.929958 0.7900 0.7900 0.7900 0.7900 0.7900
3441.549069 0.7900 0.7900 0.7900 0.7901 0.7906
3449.168179 0.7910 0.7910 0.7910 0.7910 0.7913
3456.787289 0.7923 0.7930 0.7930 0.7935 0.7950
3464.406400 0.7960 0.7960 0.7962 0.7967 0.7970
3472.025510 0.7970 0.7970 0.7970 0.7975 0.7985
3479.644621 0.7990 0.7990 0.7990 0.7990 0.7993
3487.263731 0.7998 0.8000 0.8000 0.8000 0.8000
3494.882842 0.8006 0.8016 0.8020 0.8020 0.8020
3502.501952 0.8020 0.8020 0.8020 0.8020 0.8020
3510.121063 0.8020 0.8020 0.8024 0.8029 0.8030
3517.740173 0.8030 0.8038 0.8048 0.8054 0.8059
3525.359284 0.8060 0.8060 0.8060 0.8060 0.8060
3532.978394 0.8060 0.8060 0.8060 0.8069 0.8079
3540.597504 0.8080 0.8080 0.8090 0.8100 0.8100
3548.216615 0.8100 0.8100 0.8100 0.8100 0.8100
3555.835725 0.8100 0.8100 0.8100 0.8100 0.8100
3563.454836 0.8100 0.8100 0.8100 0.8100 0.8100
3571.073946 0.8100 0.8100 0.8100 0.8100 0.8100
3578.693057 0.8100 0.8100 0.8100 0.8100 0.8100
3586.312167 0.8100 0.8100 0.8100 0.8100 0.8100
3593.931278 0.8100 0.8100 0.8100 0.8100 0.8100
3601.550388 0.8100 0.8100 0.8100 0.8100 0.8100
3609.169498 0.8100 0.8100 0.8100 0.8100 0.8100
3616.788609 0.8100 0.8100 0.8100 0.8100 0.8100
3624.407719 0.8100 0.8100 0.8100 0.8100 0.8100
3632.026830 0.8100 0.8100 0.8100 0.8100 0.8100
3639.645940 0.8100 0.8100 0.8100 0.8100 0.8100
3647.265051 0.8100 0.8100 0.8100 0.8100 0.8100
3654.884161 0.8100 0.8100 0.8100 0.8100 0.8091
3662.503272 0.8081 0.8071 0.8061 0.8060 0.8060
3670.122382 0.8060 0.8060 0.8060 0.8060 0.8060
3677.741492 0.8060 0.8060 0.8060 0.8060 0.8060
3685.360603 0.8060 0.8060 0.8060 0.8060 0.8060
3692.979713 0.8060 0.8060 0.8062 0.8072 0.8080
3700.598824 0.8080 0.8080 0.8080 0.8080 0.8080
3708.217934 0.8080 0.8080 0.8083 0.8093 0.8100
3715.837045 0.8100 0.8100 0.8100 0.8100 0.8100
3723.456155 0.8100 0.8100 0.8100 0.8100 0.8096
3731.075266 0.8086 0.8080 0.8080 0.8080 0.8080
3738.694376 0.8080 0.8080 0.8080 0.8080 0.8080
3746.313487 0.8080 0.8080 0.8080 0.8080 0.8080
3753.932597 0.8080 0.8080 0.8080 0.8080 0.8074
3761.551707 0.8063 0.8060 0.8060 0.8060 0.8060
3769.170818 0.8060 0.8060 0.8060 0.8060 0.8060
3776.789928 0.8060 0.8060 0.8060 0.8060 0.8060
3784.409039 0.8060 0.8060 0.8060 0.8060 0.8060
3792.028149 0.8060 0.8060 0.8060 0.8060 0.8060
3799.647260 0.8060 0.8060 0.8060 0.8060 0.8060
3807.266370 0.8060 0.8060 0.8060 0.8060 0.8060
3814.885481 0.8060 0.8060 0.8060 0.8060 0.8060
3822.504591 0.8060 0.8060 0.8060 0.8060 0.8060
3830.123701 0.8060 0.8059 0.8054 0.8050 0.8050
3837.742812 0.8050 0.8050 0.8050 0.8050 0.8050
3845.361922 0.8050 0.8050 0.8050 0.8050 0.8050
3852.981033 0.8050 0.8050 0.8050 0.8050 0.8050
3860.600143 0.8050 0.8050 0.8050 0.8045 0.8035
3868.219254 0.8030 0.8030 0.8030 0.8030 0.8030
3875.838364 0.8030 0.8030 0.8030 0.8030 0.8030
3883.457475 0.8036 0.8046 0.8050 0.8050 0.8050
3891.076585 0.8050 0.8050 0.8050 0.8050 0.8050
3898.695695 0.8050 0.8050 0.8054 0.8059 0.8060
3906.314806 0.8060 0.8068 0.8078 0.8080 0.8080
3913.933916 0.8080 0.8080 0.8080 0.8080 0.8080
3921.553027 0.8080 0.8080 0.8080 0.8080 0.8080
3929.172137 0.8080 0.8080 0.8080 0.8080 0.8080
3936.791248 0.8080 0.8080 0.8080 0.8069 0.8060
3944.410358 0.8060 0.8060 0.8055 0.8049 0.8039
3952.029469 0.8030 0.8030 0.8030 0.8030 0.8032
3959.648579 0.8042 0.8050 0.8050 0.8050 0.8050
3967.267689 0.8050 0.8050 0.8051 0.8056 0.8063
3974.886800 0.8073 0.8080 0.8080 0.8080 0.8080
3982.505910 0.8080 0.8080 0.8076 0.8066 0.8060
3990.125021 0.8060 0.8058 0.8053 0.8052 0.8057
3997.744131 0.8058 0.8052
##END=
