##TITLE=n-PENTANE
##JCAMP-DX=4.24
##DATA TYPE=INFRARED SPECTRUM
##CLASS=COBLENTZ
##ORIGIN=DOW CHEMICAL COMPANY
##OWNER=COBLENTZ SOCIETY
Collection (C) 2018 copyright by the U.S. Secretary of Commerce
on behalf of the United States of America. All rights reserved.
##DATE=1980/05/29
##CAS REGISTRY NO=109-66-0
##MOLFORM=C5 H12
##BP=36 C
##SOURCE REFERENCE=COBLENTZ NO. 10566
##$NIST SOURCE=COBLENTZ
##$NIST IMAGE=cob-r10566
##SPECTROMETER/DATA SYSTEM=PERKIN-ELMER 180
##INSTRUMENT PARAMETERS=
$$ ABSORPTION DUE TO BLANK CELL AT 1578 CM^-^1.
##STATE=VAPOR (440 mmHg, N2 ADDED, TOTAL PRESSURE 600 mmHg)
##PATH LENGTH=7 CM
##SAMPLING PROCEDURE=TRANSMISSION
##RESOLUTION=2 CM^-^1
##DATA PROCESSING=DIGITIZED BY NIST FROM HARD COPY (FROM TWO SEGMENTS)
##XUNITS=1/CM
##YUNITS=TRANSMITTANCE
##XFACTOR=1.000000
##YFACTOR=1
##DELTAX=1.462232
##FIRSTX=249.716
##LASTX=3998.88
##FIRSTY=0.099
##MAXX=3998.88
##MINX=249.716
##MAXY=0.995
##MINY=0.001
##NPOINTS=2565
##XYDATA=(X++(Y..Y))
249.716000 0.0990 0.0690 0.0211 0.0140 0.0070
257.027162 0.0040 0.0040 0.0040 0.0020 0.0020
264.338324 0.0020 0.0020 0.0020 0.0020 0.0020
271.649485 0.0020 0.0020 0.0020 0.0020 0.0020
278.960647 0.0020 0.0020 0.0020 0.0020 0.0020
286.271809 0.0020 0.0020 0.0020 0.0020 0.0020
293.582971 0.0020 0.0020 0.0020 0.0020 0.0020
300.894133 0.0020 0.0020 0.0020 0.0020 0.0020
308.205295 0.0020 0.0020 0.0020 0.0020 0.0020
315.516456 0.0020 0.0020 0.0020 0.0040 0.0040
322.827618 0.0040 0.0050 0.0080 0.0130 0.0180
330.138780 0.0230 0.0320 0.0360 0.0400 0.0430
337.449942 0.0510 0.0550 0.0710 0.0870 0.0900
344.761104 0.0910 0.0960 0.1000 0.1030 0.1199
352.072265 0.1410 0.1480 0.1610 0.1720 0.1770
359.383427 0.1900 0.2039 0.2229 0.2369 0.2430
366.694589 0.2520 0.2580 0.2690 0.2840 0.3010
374.005751 0.3219 0.3270 0.3439 0.3490 0.3649
381.316913 0.3810 0.3860 0.3890 0.4159 0.4220
388.628075 0.4280 0.4399 0.4509 0.4629 0.4779
395.939236 0.5020 0.5100 0.5210 0.5390 0.5550
403.250398 0.5680 0.5750 0.5869 0.5969 0.6089
410.561560 0.6150 0.6280 0.6420 0.6530 0.6570
417.872722 0.6670 0.6760 0.6879 0.7019 0.7139
425.183884 0.7250 0.7310 0.7340 0.7430 0.7520
432.495045 0.7620 0.7680 0.7779 0.7820 0.7899
439.806207 0.7970 0.8040 0.8130 0.8160 0.8220
447.117369 0.8230 0.8300 0.8320 0.8360 0.8390
454.428531 0.8440 0.8450 0.8510 0.8510 0.8520
461.739693 0.8570 0.8620 0.8640 0.8650 0.8670
469.050855 0.8710 0.8760 0.8830 0.8860 0.8900
476.362016 0.8920 0.8970 0.9020 0.9129 0.9219
483.673178 0.9270 0.9320 0.9340 0.9350 0.9380
490.984340 0.9440 0.9480 0.9530 0.9540 0.9570
498.295502 0.9620 0.9620 0.9540 0.9510 0.9510
505.606664 0.9530 0.9530 0.9560 0.9570 0.9570
512.917825 0.9540 0.9540 0.9560 0.9560 0.9560
520.228987 0.9560 0.9540 0.9530 0.9530 0.9530
527.540149 0.9510 0.9510 0.9530 0.9530 0.9560
534.851311 0.9570 0.9600 0.9600 0.9620 0.9650
542.162473 0.9660 0.9660 0.9660 0.9660 0.9660
549.473634 0.9650 0.9650 0.9700 0.9720 0.9730
556.784796 0.9750 0.9750 0.9760 0.9790 0.9820
564.095958 0.9850 0.9850 0.9850 0.9850 0.9860
571.407120 0.9880 0.9880 0.9890 0.9910 0.9920
578.718282 0.9950 0.9950 0.9950 0.9920 0.9920
586.029444 0.9910 0.9890 0.9880 0.9860 0.9860
593.340605 0.9860 0.9860 0.9860 0.9880 0.9880
600.651767 0.9880 0.9890 0.9890 0.9920 0.9940
607.962929 0.9950 0.9910 0.9830 0.9760 0.9750
615.274091 0.9720 0.9660 0.9650 0.9630 0.9630
622.585253 0.9650 0.9690 0.9730 0.9750 0.9780
629.896414 0.9830 0.9860 0.9860 0.9860 0.9830
637.207576 0.9820 0.9790 0.9700 0.9670 0.9630
644.518738 0.9620 0.9590 0.9540 0.9510 0.9500
651.829900 0.9510 0.9570 0.9660 0.9690 0.9720
659.141062 0.9750 0.9760 0.9780 0.9790 0.9810
666.452224 0.9810 0.9790 0.9760 0.9750 0.9730
673.763385 0.9720 0.9690 0.9660 0.9650 0.9630
681.074547 0.9570 0.9540 0.9510 0.9480 0.9460
688.385709 0.9440 0.9440 0.9400 0.9320 0.9210
695.696871 0.9090 0.8970 0.8841 0.8760 0.8621
703.008033 0.8510 0.8270 0.8000 0.7870 0.7630
710.319194 0.7361 0.7051 0.6741 0.6422 0.6102
717.630356 0.5780 0.5480 0.5200 0.5040 0.4880
724.941518 0.4411 0.3892 0.3711 0.3601 0.3600
732.252680 0.3620 0.3710 0.3770 0.3840 0.3860
739.563842 0.3920 0.3950 0.4030 0.4209 0.4439
746.875004 0.4660 0.4881 0.5290 0.5530 0.5770
754.186165 0.5940 0.6090 0.6120 0.6160 0.6190
761.497327 0.6260 0.6340 0.6450 0.6570 0.6700
768.808489 0.6790 0.6820 0.6860 0.7039 0.7120
776.119651 0.7210 0.7310 0.7410 0.7530 0.7690
783.430813 0.7870 0.8069 0.8299 0.8509 0.8639
790.741974 0.8730 0.8790 0.8810 0.8990 0.9080
798.053136 0.9080 0.9130 0.9150 0.9220 0.9280
805.364298 0.9320 0.9350 0.9370 0.9370 0.9370
812.675460 0.9380 0.9380 0.9410 0.9430 0.9430
819.986622 0.9380 0.9370 0.9350 0.9320 0.9220
827.297784 0.9110 0.9090 0.9050 0.8990 0.8901
834.608945 0.8810 0.8700 0.8600 0.8540 0.8480
841.920107 0.8420 0.8260 0.8041 0.7980 0.7821
849.231269 0.7690 0.7590 0.7460 0.7330 0.7120
856.542431 0.6980 0.6850 0.6701 0.6610 0.6481
863.853593 0.6340 0.6230 0.6230 0.6250 0.6260
871.164754 0.6290 0.6370 0.6450 0.6550 0.6639
878.475916 0.6660 0.6720 0.6740 0.6820 0.6890
885.787078 0.6980 0.6980 0.6980 0.6960 0.6831
893.098240 0.6540 0.6350 0.6180 0.6000 0.5940
900.409402 0.5591 0.5291 0.5041 0.4731 0.4412
907.720564 0.4220 0.4130 0.3990 0.3890 0.3620
915.031725 0.3331 0.3300 0.3141 0.3130 0.3140
922.342887 0.3451 0.3740 0.3970 0.4300 0.4719
929.654049 0.4790 0.5019 0.5528 0.5968 0.6348
936.965211 0.6801 0.7400 0.7630 0.7940 0.8040
944.276373 0.8319 0.8539 0.8640 0.8700 0.8730
951.587534 0.8740 0.8760 0.8770 0.8770 0.8790
958.898696 0.8790 0.8770 0.8760 0.8760 0.8700
966.209858 0.8640 0.8610 0.8570 0.8540 0.8540
973.521020 0.8480 0.8420 0.8350 0.8290 0.8230
980.832182 0.8140 0.8070 0.7970 0.7850 0.7790
988.143344 0.7690 0.7660 0.7630 0.7630 0.7630
995.454505 0.7600 0.7550 0.7530 0.7530 0.7520
1002.765667 0.7410 0.7280 0.7150 0.7050 0.6951
1010.076829 0.6900 0.6860 0.6760 0.6630 0.6510
1017.387991 0.6390 0.6340 0.6230 0.6150 0.6090
1024.699153 0.6070 0.6120 0.6230 0.6250 0.6320
1032.010314 0.6340 0.6350 0.6440 0.6579 0.6660
1039.321476 0.6771 0.6990 0.7140 0.7440 0.7600
1046.632638 0.7710 0.7750 0.7790 0.7840 0.7880
1053.943800 0.7940 0.7910 0.7850 0.7750 0.7650
1061.254962 0.7530 0.7440 0.7330 0.7270 0.7240
1068.566123 0.7230 0.7150 0.7090 0.7060 0.6960
1075.877285 0.6950 0.6960 0.7090 0.7249 0.7369
1083.188447 0.7551 0.7740 0.7840 0.7940 0.7970
1090.499609 0.8060 0.8160 0.8260 0.8360 0.8450
1097.810771 0.8480 0.8520 0.8540 0.8540 0.8540
1105.121933 0.8540 0.8520 0.8510 0.8480 0.8460
1112.433094 0.8420 0.8380 0.8350 0.8290 0.8260
1119.744256 0.8190 0.8140 0.7931 0.7721 0.7461
1127.055418 0.7140 0.6989 0.6690 0.6450 0.6160
1134.366580 0.6060 0.5960 0.5930 0.5930 0.5860
1141.677742 0.5740 0.5670 0.5610 0.5550 0.5530
1148.988903 0.5550 0.5780 0.5989 0.6189 0.6349
1156.300065 0.6500 0.6540 0.6660 0.6770 0.6950
1163.611227 0.7120 0.7250 0.7390 0.7460 0.7550
1170.922389 0.7590 0.7740 0.7870 0.8000 0.8040
1178.233551 0.8060 0.8130 0.8160 0.8250 0.8409
1185.544713 0.8490 0.8550 0.8620 0.8650 0.8700
1192.855874 0.8740 0.8760 0.8760 0.8760 0.8770
1200.167036 0.8790 0.8810 0.8810 0.8830 0.8830
1207.478198 0.8830 0.8830 0.8800 0.8770 0.8730
1214.789360 0.8670 0.8650 0.8640 0.8610 0.8540
1222.100522 0.8440 0.8330 0.8200 0.8041 0.7901
1229.411683 0.7739 0.7580 0.7440 0.7310 0.7210
1236.722845 0.7150 0.7120 0.7060 0.7040 0.6980
1244.034007 0.6890 0.6850 0.6790 0.6690 0.6630
1251.345169 0.6470 0.6250 0.6070 0.5881 0.5721
1258.656331 0.5550 0.5530 0.5550 0.5560 0.5560
1265.967493 0.5460 0.5370 0.5340 0.5370 0.5490
1273.278654 0.5680 0.5800 0.5990 0.6230 0.6580
1280.589816 0.6790 0.6930 0.6950 0.6980 0.7010
1287.900978 0.7020 0.7020 0.7020 0.6920 0.6580
1295.212140 0.6440 0.6260 0.6090 0.5970 0.5841
1302.523302 0.5830 0.5830 0.5830 0.5830 0.5830
1309.834463 0.5800 0.5740 0.5690 0.5670 0.5650
1317.145625 0.5670 0.5710 0.5780 0.5860 0.5870
1324.456787 0.5870 0.5810 0.5620 0.5391 0.5101
1331.767949 0.4889 0.4669 0.4400 0.4240 0.4120
1339.079111 0.3970 0.3960 0.3990 0.4050 0.4050
1346.390273 0.4030 0.3930 0.3830 0.3730 0.3640
1353.701434 0.3640 0.3620 0.3580 0.3411 0.3141
1361.012596 0.2779 0.2390 0.2229 0.1949 0.1570
1368.323758 0.1220 0.0840 0.0640 0.0431 0.0400
1375.634920 0.0360 0.0340 0.0320 0.0300 0.0300
1382.946082 0.0300 0.0300 0.0320 0.0340 0.0430
1390.257243 0.0611 0.0780 0.0910 0.0910 0.1260
1397.568405 0.1550 0.2089 0.2499 0.2839 0.3089
1404.879567 0.3321 0.3571 0.3831 0.4161 0.4590
1412.190729 0.4780 0.5040 0.5100 0.5100 0.5010
1419.501891 0.4940 0.4849 0.4649 0.4379 0.3539
1426.813053 0.2440 0.2210 0.1990 0.1771 0.1541
1434.124214 0.1439 0.1229 0.0829 0.0370 0.0260
1441.435376 0.0180 0.0160 0.0130 0.0110 0.0080
1448.746538 0.0070 0.0050 0.0050 0.0050 0.0050
1456.057700 0.0040 0.0040 0.0040 0.0040 0.0040
1463.368862 0.0040 0.0040 0.0040 0.0040 0.0040
1470.680023 0.0040 0.0040 0.0040 0.0050 0.0050
1477.991185 0.0050 0.0050 0.0070 0.0080 0.0130
1485.302347 0.0230 0.0300 0.0340 0.0639 0.0909
1492.613509 0.1201 0.1380 0.1501 0.1930 0.2230
1499.924671 0.2600 0.2970 0.3349 0.3869 0.4029
1507.235833 0.4341 0.4623 0.5531 0.5990 0.6290
1514.546994 0.6420 0.6640 0.6800 0.6980 0.7110
1521.858156 0.7271 0.7411 0.7630 0.7650 0.7680
1529.169318 0.7720 0.7750 0.7760 0.7760 0.7760
1536.480480 0.7750 0.7740 0.7690 0.7680 0.7650
1543.791642 0.7620 0.7600 0.7560 0.7550 0.7500
1551.102803 0.7430 0.7330 0.7280 0.7140 0.7060
1558.413965 0.7050 0.7020 0.6960 0.6920 0.6860
1565.725127 0.6830 0.6820 0.6790 0.6760 0.6720
1573.036289 0.6690 0.6670 0.6670 0.6690 0.6700
1580.347451 0.6740 0.6790 0.6860 0.6900 0.6920
1587.658613 0.6950 0.7020 0.7060 0.7140 0.7200
1594.969774 0.7250 0.7330 0.7390 0.7430 0.7520
1602.280936 0.7590 0.7680 0.7750 0.7810 0.7850
1609.592098 0.7910 0.7970 0.8060 0.8110 0.8140
1616.903260 0.8200 0.8260 0.8300 0.8350 0.8460
1624.214422 0.8540 0.8570 0.8580 0.8600 0.8610
1631.525583 0.8620 0.8620 0.8640 0.8650 0.8650
1638.836745 0.8670 0.8670 0.8680 0.8680 0.8680
1646.147907 0.8670 0.8670 0.8670 0.8610 0.8550
1653.459069 0.8480 0.8450 0.8440 0.8440 0.8410
1660.770231 0.8390 0.8330 0.8270 0.8230 0.8200
1668.081392 0.8190 0.8190 0.8170 0.8170 0.8190
1675.392554 0.8200 0.8230 0.8260 0.8290 0.8320
1682.703716 0.8330 0.8360 0.8380 0.8420 0.8440
1690.014878 0.8490 0.8520 0.8540 0.8570 0.8580
1697.326040 0.8610 0.8620 0.8640 0.8670 0.8700
1704.637202 0.8730 0.8740 0.8740 0.8760 0.8790
1711.948363 0.8840 0.8890 0.8900 0.8900 0.8900
1719.259525 0.8890 0.8890 0.8920 0.8960 0.8990
1726.570687 0.8990 0.8970 0.8960 0.8960 0.8990
1733.881849 0.9000 0.9000 0.9020 0.9020 0.9030
1741.193011 0.9030 0.9050 0.9060 0.9080 0.9080
1748.504172 0.9080 0.9080 0.9090 0.9130 0.9180
1755.815334 0.9250 0.9300 0.9320 0.9320 0.9340
1763.126496 0.9350 0.9350 0.9340 0.9320 0.9320
1770.437658 0.9310 0.9310 0.9320 0.9340 0.9340
1777.748820 0.9350 0.9350 0.9340 0.9350 0.9350
1785.059982 0.9320 0.9320 0.9340 0.9340 0.9340
1792.371143 0.9340 0.9340 0.9350 0.9370 0.9380
1799.682305 0.9400 0.9410 0.9430 0.9460 0.9480
1806.993467 0.9500 0.9500 0.9510 0.9510 0.9530
1814.304629 0.9530 0.9510 0.9510 0.9530 0.9530
1821.615791 0.9530 0.9530 0.9540 0.9540 0.9540
1828.926952 0.9540 0.9540 0.9540 0.9530 0.9510
1836.238114 0.9510 0.9510 0.9510 0.9510 0.9480
1843.549276 0.9460 0.9440 0.9440 0.9440 0.9440
1850.860438 0.9440 0.9440 0.9440 0.9440 0.9430
1858.171600 0.9430 0.9440 0.9440 0.9440 0.9430
1865.482762 0.9430 0.9430 0.9410 0.9410 0.9410
1872.793923 0.9410 0.9400 0.9380 0.9380 0.9370
1880.105085 0.9370 0.9370 0.9350 0.9340 0.9340
1887.416247 0.9320 0.9320 0.9300 0.9270 0.9240
1894.727409 0.9240 0.9220 0.9210 0.9210 0.9190
1902.038571 0.9180 0.9160 0.9150 0.9150 0.9150
1909.349732 0.9150 0.9150 0.9130 0.9130 0.9130
1916.660894 0.9150 0.9160 0.9180 0.9190 0.9210
1923.972056 0.9220 0.9220 0.9240 0.9240 0.9250
1931.283218 0.9250 0.9300 0.9320 0.9340 0.9350
1938.594380 0.9370 0.9410 0.9440 0.9460 0.9460
1945.905542 0.9460 0.9460 0.9480 0.9500 0.9500
1953.216703 0.9500 0.9500 0.9480 0.9470 0.9470
1960.527865 0.9480 0.9530 0.9530 0.9530 0.9530
1967.839027 0.9510 0.9510 0.9510 0.9530 0.9530
1975.150189 0.9510 0.9510 0.9510 0.9500 0.9480
1982.461351 0.9460 0.9460 0.9440 0.9440 0.9440
1989.772512 0.9440 0.9430 0.9430 0.9410 0.9400
1997.083674 0.9380 0.9380 0.9350 0.9345 0.9340
2004.394836 0.9324 0.9310 0.9305 0.9298 0.9273
2011.705998 0.9249 0.9234 0.9217 0.9186 0.9157
2019.017160 0.9137 0.9112 0.9062 0.9010 0.8949
2026.328322 0.8889 0.8833 0.8772 0.8696 0.8637
2033.639483 0.8627 0.8623 0.8633 0.8642 0.8647
2040.950645 0.8663 0.8703 0.8737 0.8757 0.8787
2048.261807 0.8832 0.8874 0.8909 0.8934 0.8944
2055.572969 0.8959 0.8979 0.8992 0.8997 0.9008
2062.884131 0.9023 0.9030 0.9030 0.9035 0.9046
2070.195292 0.9058 0.9074 0.9083 0.9088 0.9099
2077.506454 0.9114 0.9129 0.9145 0.9163 0.9183
2084.817616 0.9197 0.9207 0.9214 0.9219 0.9220
2092.128778 0.9220 0.9228 0.9238 0.9244 0.9249
2099.439940 0.9250 0.9250 0.9250 0.9250 0.9246
2106.751102 0.9241 0.9240 0.9240 0.9231 0.9221
2114.062263 0.9220 0.9220 0.9206 0.9191 0.9185
2121.373425 0.9180 0.9170 0.9160 0.9160 0.9160
2128.684587 0.9155 0.9150 0.9139 0.9130 0.9125
2135.995749 0.9117 0.9087 0.9055 0.9004 0.8957
2143.306911 0.8937 0.8918 0.8908 0.8899 0.8894
2150.618072 0.8888 0.8878 0.8865 0.8845 0.8827
2157.929234 0.8817 0.8796 0.8745 0.8701 0.8671
2165.240396 0.8648 0.8643 0.8640 0.8640 0.8640
2172.551558 0.8640 0.8640 0.8640 0.8642 0.8647
2179.862720 0.8655 0.8665 0.8672 0.8677 0.8685
2187.173881 0.8695 0.8703 0.8708 0.8710 0.8710
2194.485043 0.8716 0.8726 0.8730 0.8730 0.8730
2201.796205 0.8730 0.8730 0.8730 0.8723 0.8713
2209.107367 0.8710 0.8710 0.8706 0.8701 0.8700
2216.418529 0.8700 0.8689 0.8673 0.8662 0.8652
2223.729691 0.8646 0.8641 0.8640 0.8640 0.8644
2231.040852 0.8649 0.8659 0.8669 0.8670 0.8670
2238.352014 0.8675 0.8680 0.8690 0.8700 0.8700
2245.663176 0.8700 0.8705 0.8710 0.8710 0.8710
2252.974338 0.8705 0.8700 0.8689 0.8680 0.8680
2260.285500 0.8679 0.8674 0.8670 0.8670 0.8668
2267.596661 0.8658 0.8650 0.8650 0.8649 0.8644
2274.907823 0.8636 0.8615 0.8593 0.8562 0.8536
2282.218985 0.8521 0.8497 0.8452 0.8420 0.8420
2289.530147 0.8418 0.8413 0.8410 0.8410 0.8400
2296.841309 0.8375 0.8358 0.8353 0.8346 0.8336
2304.152471 0.8330 0.8330 0.8328 0.8323 0.8315
2311.463632 0.8305 0.8292 0.8277 0.8267 0.8262
2318.774794 0.8257 0.8252 0.8241 0.8226 0.8204
2326.085956 0.8179 0.8157 0.8137 0.8133 0.8138
2333.397118 0.8140 0.8140 0.8151 0.8166 0.8188
2340.708280 0.8214 0.8224 0.8229 0.8226 0.8221
2348.019441 0.8220 0.8220 0.8220 0.8220 0.8220
2355.330603 0.8220 0.8211 0.8201 0.8186 0.8171
2362.641765 0.8156 0.8141 0.8135 0.8130 0.8120
2369.952927 0.8110 0.8110 0.8110 0.8120 0.8130
2377.264089 0.8130 0.8130 0.8135 0.8141 0.8151
2384.575251 0.8161 0.8166 0.8169 0.8164 0.8158
2391.886412 0.8142 0.8130 0.8130 0.8118 0.8057
2399.197574 0.7995 0.7924 0.7855 0.7794 0.7746
2406.508736 0.7730 0.7706 0.7660 0.7628 0.7623
2413.819898 0.7616 0.7606 0.7621 0.7676 0.7730
2421.131060 0.7780 0.7831 0.7881 0.7943 0.8019
2428.442221 0.8108 0.8214 0.8306 0.8383 0.8452
2435.753383 0.8512 0.8540 0.8540 0.8523 0.8493
2443.064545 0.8468 0.8448 0.8431 0.8416 0.8401
2450.375707 0.8385 0.8370 0.8355 0.8343 0.8333
2457.686869 0.8327 0.8321 0.8320 0.8320 0.8320
2464.998031 0.8320 0.8324 0.8329 0.8338 0.8348
2472.309192 0.8354 0.8359 0.8360 0.8360 0.8369
2479.620354 0.8379 0.8393 0.8409 0.8415 0.8420
2486.931516 0.8429 0.8439 0.8450 0.8460 0.8460
2494.242678 0.8460 0.8486 0.8510 0.8515 0.8522
2501.553840 0.8563 0.8601 0.8622 0.8641 0.8657
2508.865001 0.8670 0.8670 0.8667 0.8641 0.8617
2516.176163 0.8597 0.8577 0.8562 0.8543 0.8513
2523.487325 0.8485 0.8465 0.8446 0.8431 0.8419
2530.798487 0.8413 0.8407 0.8397 0.8390 0.8390
2538.109649 0.8394 0.8404 0.8410 0.8410 0.8412
2545.420811 0.8417 0.8420 0.8420 0.8420 0.8420
2552.731972 0.8420 0.8420 0.8417 0.8412 0.8373
2560.043134 0.8302 0.8234 0.8169 0.8103 0.8037
2567.354296 0.7980 0.7930 0.7879 0.7829 0.7778
2574.665458 0.7728 0.7667 0.7600 0.7513 0.7417
2581.976620 0.7321 0.7225 0.7129 0.7033 0.6960
2589.287781 0.6895 0.6825 0.6754 0.6708 0.6667
2596.598943 0.6594 0.6513 0.6436 0.6361 0.6285
2603.910105 0.6209 0.6150 0.6094 0.6043 0.5993
2611.221267 0.5961 0.5931 0.5915 0.5900 0.5900
2618.532429 0.5900 0.5905 0.5910 0.5926 0.5940
2625.843591 0.5940 0.5941 0.5956 0.5970 0.5970
2633.154752 0.5971 0.5981 0.5991 0.5996 0.6003
2640.465914 0.6018 0.6031 0.6036 0.6040 0.6040
2647.777076 0.6043 0.6053 0.6060 0.6060 0.6054
2655.088238 0.6034 0.6003 0.5947 0.5893 0.5843
2662.399400 0.5797 0.5762 0.5726 0.5691 0.5664
2669.710561 0.5648 0.5627 0.5596 0.5550 0.5484
2677.021723 0.5443 0.5428 0.5423 0.5428 0.5464
2684.332885 0.5530 0.5568 0.5583 0.5596 0.5606
2691.644047 0.5604 0.5594 0.5587 0.5582 0.5570
2698.955209 0.5555 0.5540 0.5525 0.5509 0.5494
2706.266370 0.5476 0.5455 0.5443 0.5432 0.5419
2713.577532 0.5403 0.5369 0.5328 0.5296 0.5265
2720.888694 0.5159 0.5036 0.4963 0.4897 0.4832
2728.199856 0.4766 0.4631 0.4490 0.4381 0.4275
2735.511018 0.4164 0.4053 0.3922 0.3791 0.3665
2742.822180 0.3539 0.3448 0.3360 0.3355 0.3350
2750.133341 0.3350 0.3357 0.3422 0.3490 0.3571
2757.444503 0.3664 0.3831 0.3995 0.4147 0.4292
2764.755665 0.4408 0.4501 0.4506 0.4537 0.4659
2772.066827 0.4751 0.4756 0.4759 0.4754 0.4715
2779.377989 0.4592 0.4481 0.4395 0.4316 0.4251
2786.689150 0.4155 0.4008 0.3872 0.3750 0.3652
2794.000312 0.3587 0.3499 0.3383 0.3269 0.3158
2801.311474 0.3037 0.2905 0.2799 0.2719 0.2637
2808.622636 0.2555 0.2477 0.2401 0.2304 0.2193
2815.933798 0.2073 0.1946 0.1756 0.1529 0.1321
2823.244960 0.1124 0.0992 0.0891 0.0751 0.0595
2830.556121 0.0460 0.0333 0.0214 0.0098 0.0058
2837.867283 0.0043 0.0040 0.0040 0.0032 0.0022
2845.178445 0.0020 0.0020 0.0016 0.0011 0.0010
2852.489607 0.0010 0.0010 0.0010 0.0010 0.0010
2859.800769 0.0015 0.0020 0.0020 0.0020 0.0015
2867.111930 0.0010 0.0010 0.0010 0.0010 0.0010
2874.423092 0.0010 0.0010 0.0010 0.0010 0.0010
2881.734254 0.0010 0.0010 0.0010 0.0010 0.0011
2889.045416 0.0016 0.0020 0.0020 0.0020 0.0020
2896.356578 0.0020 0.0020 0.0020 0.0020 0.0020
2903.667740 0.0020 0.0020 0.0020 0.0020 0.0020
2910.978901 0.0020 0.0020 0.0020 0.0020 0.0020
2918.290063 0.0020 0.0020 0.0020 0.0020 0.0020
2925.601225 0.0020 0.0020 0.0020 0.0020 0.0020
2932.912387 0.0020 0.0020 0.0020 0.0020 0.0020
2940.223549 0.0020 0.0020 0.0020 0.0020 0.0020
2947.534710 0.0020 0.0020 0.0020 0.0020 0.0020
2954.845872 0.0020 0.0020 0.0020 0.0020 0.0020
2962.157034 0.0020 0.0020 0.0020 0.0020 0.0020
2969.468196 0.0020 0.0020 0.0020 0.0020 0.0020
2976.779358 0.0020 0.0020 0.0020 0.0020 0.0020
2984.090520 0.0020 0.0020 0.0020 0.0020 0.0020
2991.401681 0.0020 0.0020 0.0022 0.0063 0.0121
2998.712843 0.0379 0.0627 0.0794 0.0956 0.1082
3006.024005 0.1204 0.1300 0.1397 0.1499 0.1610
3013.335167 0.1752 0.1904 0.2091 0.2261 0.2382
3020.646329 0.2481 0.2522 0.2574 0.2655 0.2723
3027.957490 0.2763 0.2793 0.2804 0.2810 0.2810
3035.268652 0.2818 0.2838 0.2866 0.2907 0.2953
3042.579814 0.3003 0.3039 0.3060 0.3085 0.3115
3049.890976 0.3140 0.3161 0.3205 0.3271 0.3331
3057.202138 0.3386 0.3442 0.3497 0.3550 0.3600
3064.513300 0.3654 0.3710 0.3753 0.3789 0.3821
3071.824461 0.3851 0.3906 0.3972 0.3994 0.3999
3079.135623 0.4068 0.4159 0.4253 0.4349 0.4445
3086.446785 0.4541 0.4584 0.4615 0.4662 0.4712
3093.757947 0.4887 0.5084 0.5208 0.5321 0.5413
3101.069109 0.5504 0.5605 0.5706 0.5729 0.5750
3108.380270 0.5780 0.5810 0.5840 0.5870 0.5875
3115.691432 0.5881 0.5896 0.5911 0.5921 0.5929
3123.002594 0.5919 0.5908 0.5893 0.5877 0.5857
3130.313756 0.5834 0.5799 0.5762 0.5722 0.5681
3137.624918 0.5641 0.5601 0.5560 0.5521 0.5486
3144.936080 0.5454 0.5434 0.5416 0.5400 0.5380
3152.247241 0.5350 0.5318 0.5282 0.5242 0.5197
3159.558403 0.5156 0.5120 0.5083 0.5042 0.5015
3166.869565 0.5005 0.4988 0.4963 0.4940 0.4920
3174.180727 0.4902 0.4887 0.4875 0.4865 0.4860
3181.491889 0.4860 0.4860 0.4860 0.4860 0.4860
3188.803050 0.4866 0.4877 0.4893 0.4914 0.5061
3196.114212 0.5268 0.5408 0.5519 0.5623 0.5724
3203.425374 0.5859 0.6006 0.6102 0.6183 0.6236
3210.736536 0.6281 0.6311 0.6336 0.6504 0.6696
3218.047698 0.6822 0.6938 0.7086 0.7237 0.7264
3225.358860 0.7279 0.7308 0.7339 0.7388 0.7439
3232.670021 0.7450 0.7460 0.7475 0.7491 0.7542
3239.981183 0.7592 0.7654 0.7711 0.7727 0.7741
3247.292345 0.7751 0.7763 0.7789 0.7813 0.7833
3254.603507 0.7863 0.7939 0.8010 0.8060 0.8103
3261.914669 0.8118 0.8137 0.8167 0.8190 0.8190
3269.225830 0.8190 0.8190 0.8190 0.8190 0.8190
3276.536992 0.8190 0.8184 0.8169 0.8160 0.8160
3283.848154 0.8150 0.8124 0.8106 0.8096 0.8090
3291.159316 0.8090 0.8092 0.8097 0.8107 0.8123
3298.470478 0.8133 0.8138 0.8154 0.8179 0.8190
3305.781639 0.8190 0.8193 0.8198 0.8206 0.8216
3313.092801 0.8223 0.8228 0.8240 0.8255 0.8260
3320.403963 0.8260 0.8264 0.8269 0.8277 0.8287
3327.715125 0.8290 0.8290 0.8290 0.8290 0.8294
3335.026287 0.8299 0.8308 0.8319 0.8333 0.8348
3342.337449 0.8350 0.8350 0.8336 0.8321 0.8311
3349.648610 0.8301 0.8262 0.8222 0.8176 0.8131
3356.959772 0.8070 0.8009 0.7968 0.7929 0.7914
3364.270934 0.7900 0.7900 0.7899 0.7889 0.7880
3371.582096 0.7880 0.7882 0.7897 0.7919 0.7980
3378.893258 0.8044 0.8125 0.8196 0.8226 0.8254
3386.204419 0.8275 0.8291 0.8296 0.8309 0.8339
3393.515581 0.8365 0.8380 0.8393 0.8403 0.8412
3400.826743 0.8417 0.8420 0.8420 0.8420 0.8420
3408.137905 0.8418 0.8413 0.8410 0.8410 0.8403
3415.449067 0.8388 0.8375 0.8365 0.8357 0.8352
3422.760229 0.8350 0.8350 0.8353 0.8358 0.8360
3430.071390 0.8360 0.8366 0.8376 0.8389 0.8405
3437.382552 0.8413 0.8418 0.8433 0.8454 0.8470
3444.693714 0.8486 0.8501 0.8516 0.8543 0.8573
3452.004876 0.8588 0.8598 0.8608 0.8618 0.8628
3459.316038 0.8638 0.8640 0.8640 0.8653 0.8668
3466.627199 0.8674 0.8679 0.8689 0.8699 0.8705
3473.938361 0.8710 0.8710 0.8710 0.8705 0.8700
3481.249523 0.8690 0.8680 0.8680 0.8680 0.8680
3488.560685 0.8681 0.8691 0.8700 0.8700 0.8701
3495.871847 0.8706 0.8710 0.8710 0.8710 0.8710
3503.183009 0.8710 0.8710 0.8710 0.8710 0.8710
3510.494170 0.8710 0.8710 0.8710 0.8710 0.8710
3517.805332 0.8710 0.8710 0.8713 0.8723 0.8730
3525.116494 0.8730 0.8730 0.8730 0.8730 0.8730
3532.427656 0.8730 0.8730 0.8737 0.8752 0.8762
3539.738818 0.8767 0.8770 0.8770 0.8770 0.8770
3547.049979 0.8770 0.8770 0.8767 0.8762 0.8760
3554.361141 0.8760 0.8760 0.8760 0.8754 0.8743
3561.672303 0.8737 0.8732 0.8723 0.8713 0.8710
3568.983465 0.8710 0.8706 0.8701 0.8700 0.8700
3576.294627 0.8680 0.8655 0.8634 0.8614 0.8610
3583.605789 0.8610 0.8606 0.8601 0.8600 0.8600
3590.916950 0.8577 0.8552 0.8508 0.8462 0.8441
3598.228112 0.8421 0.8400 0.8380 0.8355 0.8330
3605.539274 0.8310 0.8289 0.8269 0.8250 0.8239
3612.850436 0.8230 0.8225 0.8219 0.8203 0.8184
3620.161598 0.8144 0.8106 0.8081 0.8058 0.8048
3627.472759 0.8039 0.8034 0.8028 0.8018 0.8009
3634.783921 0.8004 0.8000 0.8000 0.7997 0.7987
3642.095083 0.7980 0.7980 0.7980 0.7980 0.7980
3649.406245 0.7980 0.7984 0.7994 0.8000 0.8000
3656.717407 0.8002 0.8007 0.8015 0.8025 0.8032
3664.028569 0.8037 0.8048 0.8063 0.8078 0.8093
3671.339730 0.8097 0.8092 0.8090 0.8090 0.8075
3678.650892 0.8049 0.7989 0.7908 0.7877 0.7872
3685.962054 0.7873 0.7878 0.7890 0.7906 0.7917
3693.273216 0.7927 0.7945 0.7965 0.7974 0.7979
3700.584378 0.8015 0.8061 0.8098 0.8134 0.8174
3707.895539 0.8214 0.8220 0.8220 0.8211 0.8201
3715.206701 0.8200 0.8200 0.8172 0.8142 0.8116
3722.517863 0.8091 0.8066 0.8040 0.8020 0.8000
3729.829025 0.7990 0.7980 0.7980 0.7980 0.7975
3737.140187 0.7970 0.7970 0.7969 0.7959 0.7949
3744.451349 0.7944 0.7940 0.7940 0.7939 0.7934
3751.762510 0.7927 0.7912 0.7893 0.7863 0.7833
3759.073672 0.7802 0.7775 0.7754 0.7732 0.7707
3766.384834 0.7685 0.7670 0.7660 0.7660 0.7658
3773.695996 0.7653 0.7650 0.7650 0.7652 0.7657
3781.007158 0.7686 0.7747 0.7794 0.7824 0.7854
3788.318319 0.7885 0.7908 0.7923 0.7936 0.7946
3795.629481 0.7959 0.7974 0.7989 0.8004 0.8019
3802.940643 0.8034 0.8050 0.8065 0.8080 0.8095
3810.251805 0.8100 0.8100 0.8110 0.8126 0.8141
3817.562967 0.8156 0.8153 0.8142 0.8136 0.8131
3824.874128 0.8122 0.8112 0.8110 0.8110 0.8110
3832.185290 0.8110 0.8110 0.8110 0.8110 0.8110
3839.496452 0.8105 0.8100 0.8086 0.8071 0.8056
3846.807614 0.8041 0.8020 0.8000 0.7969 0.7939
3854.118776 0.7919 0.7898 0.7857 0.7820 0.7815
3861.429938 0.7805 0.7755 0.7703 0.7648 0.7597
3868.741099 0.7571 0.7548 0.7532 0.7518 0.7508
3876.052261 0.7500 0.7500 0.7495 0.7475 0.7457
3883.363423 0.7447 0.7439 0.7433 0.7430 0.7430
3890.674585 0.7432 0.7437 0.7449 0.7474 0.7498
3897.985747 0.7518 0.7542 0.7572 0.7596 0.7611
3905.296908 0.7633 0.7664 0.7687 0.7702 0.7713
3912.608070 0.7718 0.7731 0.7751 0.7768 0.7783
3919.919232 0.7807 0.7837 0.7874 0.7914 0.7942
3927.230394 0.7962 0.7973 0.7978 0.7987 0.7997
3934.541556 0.8000 0.8000 0.8004 0.8009 0.8010
3941.852718 0.8010 0.8010 0.8010 0.8010 0.8010
3949.163879 0.8010 0.8010 0.8006 0.8001 0.8000
3956.475041 0.8000 0.7987 0.7972 0.7961 0.7951
3963.786203 0.7945 0.7940 0.7940 0.7940 0.7935
3971.097365 0.7930 0.7920 0.7910 0.7910 0.7909
3978.408527 0.7894 0.7879 0.7864 0.7850 0.7845
3985.719688 0.7839 0.7823 0.7808 0.7793 0.7778
3993.030850 0.7763 0.7747 0.7732 0.7720 0.7720
##END=
