##TITLE=n-PENTANE
##JCAMP-DX=4.24
##DATA TYPE=INFRARED SPECTRUM
##CLASS=COBLENTZ III
##ORIGIN=WESTERN REGIONAL RES. USDA
##OWNER=COBLENTZ SOC.
Collection (C) 2018 copyright by the U.S. Secretary of Commerce
on behalf of the United States of America. All rights reserved.
##DATE=1965/10/01
##NAMES=pentane
##CAS REGISTRY NO=109-66-0
##MOLFORM=C5 H12
##SOURCE REFERENCE=COBLENTZ NO. 06303
##$NIST SOURCE=COBLENTZ
##$NIST IMAGE=cob6303
##SPECTROMETER/DATA SYSTEM=CARY 90 (GRATING)
##INSTRUMENT PARAMETERS=ORDER CHANGES: 3000, 2000, 1200 CM^-^1
##STATE=SOLUTION (CCl4, CS2) VS SOLVENT
##PATH LENGTH=0.005 CM, AND 0.005 CM
##SAMPLING PROCEDURE=TRANSMISSION
##RESOLUTION=2
##DATA PROCESSING=DIGITIZED BY COBLENTZ SOCIETY (BATCH I) FROM HARD COPY (ADJUSTED \addcm-1\0-0-5\)
##XUNITS=1/CM
##YUNITS=TRANSMITTANCE
##XLABEL=Wavenumbers (cm-1)
##YLABEL=Transmittance
##XFACTOR=1
##YFACTOR=1
##DELTAX=0.997810
##FIRSTX=4024
##LASTX=484.767
##FIRSTY=0.9184
##MAXX=4024
##MINX=484.767
##MAXY=0.970994
##MINY=0.00276811
##NPOINTS=3548
##XYDATA=(X++(Y..Y))
4024.000000 0.9184 0.9186 0.9188 0.9191 0.9195
4019.010949 0.9198 0.9202 0.9205 0.9209 0.9212
4014.021897 0.9216 0.9220 0.9224 0.9227 0.9231
4009.032846 0.9234 0.9238 0.9241 0.9245 0.9248
4004.043794 0.9252 0.9255 0.9259 0.9260 0.9261
3999.054743 0.9261 0.9261 0.9261 0.9262 0.9262
3994.065691 0.9263 0.9263 0.9264 0.9264 0.9264
3989.076640 0.9264 0.9265 0.9265 0.9266 0.9266
3984.087588 0.9267 0.9268 0.9268 0.9270 0.9271
3979.098537 0.9273 0.9274 0.9275 0.9277 0.9278
3974.109485 0.9278 0.9280 0.9282 0.9283 0.9285
3969.120434 0.9286 0.9288 0.9290 0.9292 0.9294
3964.131383 0.9296 0.9297 0.9299 0.9301 0.9303
3959.142331 0.9305 0.9307 0.9308 0.9310 0.9312
3954.153280 0.9314 0.9316 0.9318 0.9318 0.9321
3949.164228 0.9323 0.9325 0.9325 0.9325 0.9325
3944.175177 0.9324 0.9323 0.9321 0.9321 0.9320
3939.186125 0.9318 0.9318 0.9317 0.9316 0.9315
3934.197074 0.9314 0.9313 0.9312 0.9311 0.9310
3929.208022 0.9309 0.9308 0.9307 0.9306 0.9305
3924.218971 0.9304 0.9303 0.9302 0.9301 0.9300
3919.229920 0.9299 0.9298 0.9297 0.9296 0.9295
3914.240868 0.9294 0.9293 0.9292 0.9292 0.9292
3909.251817 0.9293 0.9294 0.9296 0.9297 0.9299
3904.262765 0.9300 0.9301 0.9302 0.9304 0.9305
3899.273714 0.9307 0.9308 0.9310 0.9311 0.9312
3894.284662 0.9313 0.9315 0.9316 0.9318 0.9318
3889.295611 0.9320 0.9323 0.9325 0.9327 0.9330
3884.306559 0.9333 0.9336 0.9339 0.9341 0.9344
3879.317508 0.9346 0.9349 0.9351 0.9354 0.9357
3874.328456 0.9360 0.9362 0.9365 0.9367 0.9370
3869.339405 0.9372 0.9374 0.9377 0.9380 0.9381
3864.350354 0.9382 0.9382 0.9383 0.9383 0.9383
3859.361302 0.9383 0.9383 0.9383 0.9383 0.9383
3854.372251 0.9384 0.9384 0.9384 0.9384 0.9384
3849.383199 0.9384 0.9384 0.9384 0.9384 0.9384
3844.394148 0.9385 0.9385 0.9385 0.9385 0.9385
3839.405096 0.9385 0.9385 0.9385 0.9386 0.9386
3834.416045 0.9386 0.9386 0.9386 0.9386 0.9386
3829.426993 0.9385 0.9383 0.9382 0.9380 0.9379
3824.437942 0.9377 0.9376 0.9374 0.9372 0.9371
3819.448891 0.9369 0.9368 0.9367 0.9366 0.9365
3814.459839 0.9363 0.9362 0.9360 0.9359 0.9357
3809.470788 0.9356 0.9354 0.9353 0.9351 0.9350
3804.481736 0.9349 0.9348 0.9346 0.9345 0.9343
3799.492685 0.9342 0.9340 0.9339 0.9337 0.9336
3794.503633 0.9335 0.9333 0.9332 0.9331 0.9329
3789.514582 0.9328 0.9328 0.9327 0.9327 0.9327
3784.525530 0.9327 0.9327 0.9327 0.9328 0.9328
3779.536479 0.9328 0.9328 0.9328 0.9328 0.9328
3774.547427 0.9328 0.9328 0.9329 0.9330 0.9330
3769.558376 0.9330 0.9330 0.9331 0.9331 0.9331
3764.569325 0.9331 0.9331 0.9331 0.9331 0.9331
3759.580273 0.9331 0.9329 0.9328 0.9328 0.9328
3754.591222 0.9326 0.9325 0.9325 0.9325 0.9324
3749.602170 0.9322 0.9321 0.9321 0.9321 0.9319
3744.613119 0.9318 0.9318 0.9317 0.9317 0.9316
3739.624067 0.9315 0.9314 0.9314 0.9313 0.9312
3734.635016 0.9311 0.9311 0.9310 0.9309 0.9308
3729.645964 0.9308 0.9307 0.9306 0.9305 0.9305
3724.656913 0.9304 0.9303 0.9302 0.9301 0.9300
3719.667862 0.9300 0.9299 0.9298 0.9297 0.9297
3714.678810 0.9296 0.9295 0.9294 0.9294 0.9293
3709.689759 0.9292 0.9291 0.9291 0.9290 0.9289
3704.700707 0.9288 0.9287 0.9286 0.9286 0.9285
3699.711656 0.9284 0.9283 0.9282 0.9281 0.9279
3694.722604 0.9278 0.9278 0.9276 0.9275 0.9275
3689.733553 0.9274 0.9272 0.9271 0.9271 0.9269
3684.744501 0.9268 0.9268 0.9267 0.9266 0.9265
3679.755450 0.9264 0.9263 0.9263 0.9262 0.9261
3674.766398 0.9260 0.9259 0.9258 0.9257 0.9256
3669.777347 0.9255 0.9254 0.9253 0.9252 0.9251
3664.788296 0.9250 0.9250 0.9249 0.9249 0.9248
3659.799244 0.9248 0.9247 0.9247 0.9247 0.9247
3654.810193 0.9246 0.9246 0.9245 0.9245 0.9244
3649.821141 0.9244 0.9243 0.9243 0.9243 0.9243
3644.832090 0.9242 0.9242 0.9241 0.9241 0.9240
3639.843038 0.9240 0.9240 0.9240 0.9239 0.9239
3634.853987 0.9238 0.9238 0.9238 0.9239 0.9240
3629.864935 0.9241 0.9242 0.9244 0.9245 0.9246
3624.875884 0.9247 0.9248 0.9249 0.9250 0.9251
3619.886833 0.9253 0.9254 0.9255 0.9256 0.9257
3614.897781 0.9258 0.9259 0.9260 0.9261 0.9262
3609.908730 0.9263 0.9264 0.9265 0.9266 0.9267
3604.919678 0.9268 0.9268 0.9270 0.9271 0.9271
3599.930627 0.9273 0.9273 0.9274 0.9275 0.9275
3594.941575 0.9277 0.9278 0.9278 0.9280 0.9281
3589.952524 0.9282 0.9283 0.9284 0.9284 0.9285
3584.963472 0.9286 0.9287 0.9287 0.9288 0.9288
3579.974421 0.9289 0.9289 0.9290 0.9290 0.9291
3574.985369 0.9291 0.9292 0.9292 0.9293 0.9293
3569.996318 0.9293 0.9293 0.9294 0.9294 0.9295
3565.007267 0.9295 0.9296 0.9296 0.9297 0.9297
3560.018215 0.9298 0.9298 0.9299 0.9299 0.9300
3555.029164 0.9300 0.9301 0.9301 0.9302 0.9302
3550.040112 0.9303 0.9303 0.9304 0.9304 0.9305
3545.051061 0.9305 0.9306 0.9306 0.9307 0.9307
3540.062009 0.9308 0.9308 0.9309 0.9309 0.9310
3535.072958 0.9310 0.9311 0.9311 0.9312 0.9312
3530.083906 0.9313 0.9313 0.9314 0.9314 0.9315
3525.094855 0.9315 0.9316 0.9316 0.9317 0.9317
3520.105804 0.9318 0.9318 0.9318 0.9318 0.9320
3515.116752 0.9321 0.9321 0.9321 0.9323 0.9323
3510.127701 0.9324 0.9324 0.9325 0.9325 0.9325
3505.138649 0.9325 0.9325 0.9325 0.9327 0.9327
3500.149598 0.9328 0.9328 0.9328 0.9328 0.9330
3495.160546 0.9330 0.9330 0.9330 0.9331 0.9331
3490.171495 0.9332 0.9332 0.9333 0.9333 0.9333
3485.182443 0.9333 0.9334 0.9334 0.9335 0.9335
3480.193392 0.9336 0.9336 0.9337 0.9337 0.9337
3475.204340 0.9337 0.9338 0.9338 0.9339 0.9339
3470.215289 0.9340 0.9340 0.9341 0.9341 0.9341
3465.226238 0.9341 0.9342 0.9342 0.9343 0.9343
3460.237186 0.9344 0.9344 0.9344 0.9344 0.9345
3455.248135 0.9345 0.9346 0.9346 0.9346 0.9345
3450.259083 0.9344 0.9343 0.9343 0.9342 0.9342
3445.270032 0.9341 0.9341 0.9340 0.9340 0.9339
3440.280980 0.9339 0.9338 0.9337 0.9336 0.9336
3435.291929 0.9335 0.9335 0.9334 0.9334 0.9333
3430.302877 0.9333 0.9332 0.9332 0.9331 0.9330
3425.313826 0.9329 0.9328 0.9328 0.9328 0.9327
3420.324775 0.9327 0.9326 0.9325 0.9325 0.9325
3415.335723 0.9324 0.9323 0.9322 0.9321 0.9320
3410.346672 0.9319 0.9318 0.9317 0.9316 0.9315
3405.357620 0.9314 0.9313 0.9312 0.9311 0.9310
3400.368569 0.9309 0.9308 0.9307 0.9306 0.9305
3395.379517 0.9304 0.9302 0.9301 0.9299 0.9296
3390.390466 0.9294 0.9292 0.9290 0.9288 0.9286
3385.401414 0.9284 0.9282 0.9280 0.9280 0.9280
3380.412363 0.9281 0.9282 0.9283 0.9284 0.9285
3375.423311 0.9285 0.9286 0.9287 0.9288 0.9289
3370.434260 0.9290 0.9291 0.9292 0.9292 0.9293
3365.445209 0.9294 0.9295 0.9296 0.9297 0.9297
3360.456157 0.9298 0.9299 0.9300 0.9301 0.9302
3355.467106 0.9303 0.9304 0.9305 0.9306 0.9306
3350.478054 0.9307 0.9308 0.9309 0.9310 0.9311
3345.489003 0.9311 0.9311 0.9310 0.9310 0.9308
3340.499951 0.9319 0.9319 0.9305 0.9305 0.9304
3335.510900 0.9303 0.9302 0.9301 0.9300 0.9299
3330.521848 0.9298 0.9297 0.9296 0.9295 0.9294
3325.532797 0.9293 0.9292 0.9292 0.9291 0.9291
3320.543746 0.9291 0.9291 0.9290 0.9290 0.9290
3315.554694 0.9290 0.9289 0.9289 0.9289 0.9289
3310.565643 0.9288 0.9288 0.9288 0.9288 0.9287
3305.576591 0.9287 0.9286 0.9286 0.9286 0.9286
3300.587540 0.9285 0.9285 0.9285 0.9285 0.9284
3295.598488 0.9284 0.9284 0.9284 0.9283 0.9283
3290.609437 0.9282 0.9282 0.9281 0.9279 0.9278
3285.620385 0.9278 0.9278 0.9276 0.9275 0.9275
3280.631334 0.9274 0.9272 0.9271 0.9271 0.9269
3275.642282 0.9268 0.9268 0.9268 0.9267 0.9266
3270.653231 0.9265 0.9264 0.9263 0.9262 0.9261
3265.664180 0.9260 0.9259 0.9259 0.9258 0.9257
3260.675128 0.9256 0.9254 0.9253 0.9251 0.9249
3255.686077 0.9247 0.9246 0.9244 0.9243 0.9241
3250.697025 0.9240 0.9238 0.9236 0.9234 0.9233
3245.707974 0.9231 0.9229 0.9228 0.9226 0.9224
3240.718922 0.9222 0.9220 0.9214 0.9208 0.9201
3235.729871 0.9195 0.9188 0.9181 0.9174 0.9168
3230.740819 0.9161 0.9155 0.9148 0.9141 0.9134
3225.751768 0.9128 0.9122 0.9115 0.9108 0.9101
3220.762717 0.9095 0.9088 0.9081 0.9073 0.9067
3215.773665 0.9060 0.9053 0.9046 0.9039 0.9032
3210.784614 0.9025 0.9019 0.9012 0.9005 0.8998
3205.795562 0.8991 0.8984 0.8977 0.8973 0.8969
3200.806511 0.8964 0.8960 0.8955 0.8951 0.8947
3195.817459 0.8943 0.8940 0.8938 0.8938 0.8939
3190.828408 0.8939 0.8940 0.8940 0.8941 0.8942
3185.839356 0.8943 0.8943 0.8944 0.8944 0.8945
3180.850305 0.8946 0.8947 0.8947 0.8948 0.8948
3175.861253 0.8949 0.8949 0.8950 0.8951 0.8952
3170.872202 0.8952 0.8953 0.8953 0.8954 0.8955
3165.883151 0.8956 0.8956 0.8957 0.8958 0.8959
3160.894099 0.8959 0.8960 0.8961 0.8962 0.8962
3155.905048 0.8963 0.8963 0.8963 0.8962 0.8962
3150.915996 0.8961 0.8960 0.8959 0.8959 0.8958
3145.926945 0.8958 0.8957 0.8957 0.8956 0.8955
3140.937893 0.8954 0.8954 0.8953 0.8953 0.8952
3135.948842 0.8952 0.8951 0.8950 0.8946 0.8943
3130.959790 0.8938 0.8934 0.8928 0.8925 0.8920
3125.970739 0.8916 0.8911 0.8906 0.8901 0.8897
3120.981688 0.8892 0.8888 0.8883 0.8878 0.8874
3115.992636 0.8870 0.8865 0.8861 0.8856 0.8852
3111.003585 0.8847 0.8843 0.8838 0.8834 0.8828
3106.014533 0.8825 0.8820 0.8816 0.8811 0.8807
3101.025482 0.8800 0.8793 0.8784 0.8775 0.8767
3096.036430 0.8759 0.8751 0.8743 0.8734 0.8725
3091.047379 0.8717 0.8709 0.8700 0.8692 0.8684
3086.058327 0.8675 0.8665 0.8655 0.8645 0.8635
3081.069276 0.8625 0.8615 0.8605 0.8595 0.8584
3076.080224 0.8574 0.8564 0.8554 0.8544 0.8534
3071.091173 0.8524 0.8514 0.8504 0.8494 0.8484
3066.102122 0.8474 0.8460 0.8447 0.8429 0.8411
3061.113070 0.8392 0.8373 0.8354 0.8336 0.8317
3056.124019 0.8299 0.8280 0.8262 0.8243 0.8224
3051.134967 0.8205 0.8186 0.8165 0.8147 0.8128
3046.145916 0.8109 0.8087 0.8065 0.8043 0.8021
3041.156864 0.7999 0.7975 0.7953 0.7930 0.7908
3036.167813 0.7885 0.7859 0.7832 0.7802 0.7771
3031.178761 0.7740 0.7709 0.7677 0.7647 0.7614
3026.189710 0.7584 0.7552 0.7520 0.7487 0.7455
3021.200659 0.7422 0.7390 0.7358 0.7325 0.7291
3016.211607 0.7256 0.7199 0.7135 0.7072 0.7008
3011.222556 0.6891 0.6758 0.6628 0.6498 0.6384
3006.233504 0.6275 0.6170 0.6067 0.5691 0.5231
3001.244453 0.4948 0.4723 0.4497 0.4272 0.4046
2996.255401 0.3820 0.3595 0.3370 0.3144 0.2919
2991.266350 0.2694 0.2469 0.2243 0.2018 0.1791
2986.277298 0.1567 0.1342 0.1117 0.0890 0.0665
2981.288247 0.0459 0.0259 0.0171 0.0128 0.0105
2976.299195 0.0089 0.0074 0.0061 0.0054 0.0049
2971.310144 0.0043 0.0038 0.0033 0.0028 0.0028
2966.321093 0.0029 0.0033 0.0037 0.0042 0.0047
2961.332041 0.0051 0.0056 0.0061 0.0065 0.0074
2956.342990 0.0084 0.0093 0.0101 0.0106 0.0108
2951.353938 0.0110 0.0113 0.0115 0.0116 0.0117
2946.364887 0.0116 0.0112 0.0106 0.0100 0.0095
2941.375835 0.0089 0.0084 0.0081 0.0079 0.0077
2936.386784 0.0075 0.0075 0.0076 0.0078 0.0081
2931.397732 0.0083 0.0085 0.0087 0.0090 0.0096
2926.408681 0.0104 0.0114 0.0125 0.0136 0.0147
2921.419629 0.0160 0.0173 0.0186 0.0200 0.0215
2916.430578 0.0231 0.0258 0.0294 0.0338 0.0389
2911.441527 0.0439 0.0490 0.0541 0.0591 0.0642
2906.452475 0.0693 0.0743 0.0794 0.0845 0.0895
2901.463424 0.0946 0.0997 0.1048 0.1098 0.1149
2896.474372 0.1200 0.1251 0.1302 0.1352 0.1402
2891.485321 0.1433 0.1448 0.1454 0.1452 0.1441
2886.496269 0.1418 0.1309 0.1115 0.0921 0.0726
2881.507218 0.0533 0.0339 0.0236 0.0227 0.0222
2876.518166 0.0222 0.0227 0.0235 0.0243 0.0253
2871.529115 0.0262 0.0271 0.0283 0.0298 0.0315
2866.540064 0.0332 0.0353 0.0375 0.0399 0.0424
2861.551012 0.0449 0.0475 0.0510 0.0557 0.0609
2856.561961 0.0665 0.0722 0.0781 0.0845 0.0914
2851.572909 0.0983 0.1052 0.1237 0.1579 0.1892
2846.583858 0.2165 0.2438 0.2712 0.2985 0.3259
2841.594806 0.3532 0.3805 0.4078 0.4352 0.4561
2836.605755 0.4671 0.4751 0.4785 0.4819 0.4853
2831.616703 0.4887 0.4921 0.4982 0.5088 0.5257
2826.627652 0.5530 0.5738 0.5836 0.5932 0.6026
2821.638600 0.6111 0.6181 0.6251 0.6321 0.6391
2816.649549 0.6461 0.6530 0.6600 0.6671 0.6743
2811.660498 0.6814 0.6885 0.6954 0.7022 0.7083
2806.671446 0.7131 0.7179 0.7227 0.7275 0.7324
2801.682395 0.7372 0.7420 0.7468 0.7515 0.7562
2796.693343 0.7608 0.7655 0.7701 0.7748 0.7794
2791.704292 0.7838 0.7881 0.7921 0.7958 0.7994
2786.715240 0.8030 0.8066 0.8102 0.8136 0.8166
2781.726189 0.8194 0.8218 0.8242 0.8266 0.8290
2776.737137 0.8315 0.8339 0.8363 0.8387 0.8410
2771.748086 0.8433 0.8454 0.8475 0.8494 0.8512
2766.759035 0.8530 0.8549 0.8567 0.8585 0.8602
2761.769983 0.8617 0.8626 0.8635 0.8642 0.8647
2756.780932 0.8650 0.8652 0.8653 0.8654 0.8655
2751.791880 0.8655 0.8655 0.8655 0.8653 0.8649
2746.802829 0.8640 0.8631 0.8614 0.8594 0.8566
2741.813777 0.8538 0.8506 0.8470 0.8413 0.8361
2736.824726 0.8327 0.8298 0.8283 0.8271 0.8271
2731.835674 0.8270 0.8270 0.8270 0.8268 0.8272
2726.846623 0.8294 0.8320 0.8369 0.8418 0.8460
2721.857571 0.8501 0.8535 0.8568 0.8588 0.8608
2716.868520 0.8628 0.8649 0.8669 0.8689 0.8709
2711.879469 0.8729 0.8744 0.8760 0.8773 0.8786
2706.890417 0.8799 0.8812 0.8825 0.8839 0.8847
2701.901366 0.8855 0.8863 0.8871 0.8879 0.8887
2696.912314 0.8895 0.8903 0.8910 0.8917 0.8924
2691.923263 0.8930 0.8932 0.8935 0.8935 0.8935
2686.934211 0.8938 0.8983 0.8928 0.8923 0.8916
2681.945160 0.8910 0.8902 0.8893 0.8883 0.8872
2676.956108 0.8862 0.8851 0.8834 0.8817 0.8800
2671.967057 0.8783 0.8768 0.8756 0.8746 0.8737
2666.978006 0.8737 0.8737 0.8739 0.8741 0.8745
2661.988954 0.8750 0.8759 0.8768 0.8780 0.8792
2656.999903 0.8818 0.8846 0.8873 0.8900 0.8917
2652.010851 0.8934 0.8951 0.8968 0.8982 0.8996
2647.021800 0.9006 0.9017 0.9027 0.9037 0.9043
2642.032748 0.9050 0.9050 0.9050 0.9051 0.9051
2637.043697 0.9049 0.9047 0.9044 0.9041 0.9035
2632.054645 0.9030 0.9021 0.9012 0.9001 0.8990
2627.065594 0.8979 0.8968 0.8955 0.8943 0.8931
2622.076542 0.8919 0.8913 0.8908 0.8903 0.8870
2617.087491 0.8893 0.8892 0.8891 0.8890 0.8888
2612.098440 0.8888 0.8888 0.8890 0.8894 0.8898
2607.109388 0.8903 0.8907 0.8912 0.8916 0.8921
2602.120337 0.8926 0.8931 0.8936 0.8941 0.8946
2597.131285 0.8951 0.8956 0.8961 0.8966 0.8970
2592.142234 0.8976 0.8981 0.8986 0.8991 0.8996
2587.153182 0.9001 0.9006 0.9010 0.9015 0.9020
2582.164131 0.9024 0.9032 0.9039 0.9046 0.9053
2577.175079 0.9060 0.9067 0.9074 0.9082 0.9090
2572.186028 0.9097 0.9104 0.9111 0.9119 0.9126
2567.196977 0.9134 0.9141 0.9149 0.9158 0.9166
2562.207925 0.9175 0.9183 0.9192 0.9200 0.9209
2557.218874 0.9216 0.9226 0.9234 0.9242 0.9250
2552.229822 0.9259 0.9266 0.9275 0.9281 0.9287
2547.240771 0.9287 0.9287 0.9287 0.9287 0.9287
2542.251719 0.9287 0.9287 0.9287 0.9286 0.9286
2537.262668 0.9286 0.9286 0.9286 0.9286 0.9286
2532.273616 0.9286 0.9286 0.9286 0.9286 0.9286
2527.284565 0.9286 0.9286 0.9286 0.9286 0.9286
2522.295513 0.9286 0.9286 0.9286 0.9287 0.9288
2517.306462 0.9289 0.9290 0.9292 0.9293 0.9295
2512.317411 0.9296 0.9298 0.9299 0.9301 0.9302
2507.328359 0.9304 0.9305 0.9307 0.9308 0.9310
2502.339308 0.9311 0.9313 0.9314 0.9315 0.9316
2497.350256 0.9316 0.9316 0.9316 0.9316 0.9316
2492.361205 0.9316 0.9316 0.9316 0.9316 0.9316
2487.372153 0.9316 0.9316 0.9316 0.9316 0.9316
2482.383102 0.9316 0.9316 0.9316 0.9315 0.9315
2477.394050 0.9314 0.9313 0.9312 0.9311 0.9310
2472.404999 0.9310 0.9309 0.9308 0.9307 0.9306
2467.415948 0.9305 0.9305 0.9304 0.9303 0.9302
2462.426896 0.9301 0.9300 0.9300 0.9299 0.9299
2457.437845 0.9299 0.9299 0.9299 0.9299 0.9299
2452.448793 0.9299 0.9299 0.9299 0.9299 0.9300
2447.459742 0.9300 0.9300 0.9300 0.9300 0.9299
2442.470690 0.9299 0.9298 0.9298 0.9297 0.9296
2437.481639 0.9295 0.9295 0.9295 0.9296 0.9296
2432.492587 0.9297 0.9297 0.9297 0.9297 0.9297
2427.503536 0.9298 0.9298 0.9299 0.9299 0.9300
2422.514484 0.9300 0.9300 0.9300 0.9301 0.9301
2417.525433 0.9302 0.9302 0.9302 0.9302 0.9303
2412.536382 0.9303 0.9303 0.9301 0.9298 0.9294
2407.547330 0.9290 0.9287 0.9283 0.9279 0.9276
2402.558279 0.9273 0.9270 0.9268 0.9267 0.9266
2397.569227 0.9264 0.9263 0.9261 0.9260 0.9258
2392.580176 0.9257 0.9255 0.9254 0.9252 0.9251
2387.591124 0.9249 0.9247 0.9245 0.9244 0.9242
2382.602073 0.9241 0.9239 0.9238 0.9236 0.9235
2377.613021 0.9233 0.9232 0.9230 0.9228 0.9227
2372.623970 0.9225 0.9223 0.9221 0.9220 0.9218
2367.634919 0.9217 0.9216 0.9215 0.9215 0.9216
2362.645867 0.9217 0.9218 0.9219 0.9220 0.9222
2357.656816 0.9223 0.9224 0.9225 0.9226 0.9227
2352.667764 0.9229 0.9230 0.9231 0.9232 0.9233
2347.678713 0.9234 0.9235 0.9236 0.9238 0.9239
2342.689661 0.9240 0.9241 0.9242 0.9243 0.9244
2337.700610 0.9245 0.9247 0.9248 0.9249 0.9250
2332.711558 0.9251 0.9252 0.9254 0.9255 0.9256
2327.722507 0.9257 0.9258 0.9259 0.9261 0.9262
2322.733455 0.9263 0.9264 0.9266 0.9267 0.9268
2317.744404 0.9269 0.9270 0.9271 0.9272 0.9274
2312.755353 0.9275 0.9275 0.9277 0.9278 0.9279
2307.766301 0.9281 0.9282 0.9283 0.9284 0.9286
2302.777250 0.9287 0.9288 0.9289 0.9290 0.9291
2297.788198 0.9293 0.9294 0.9295 0.9296 0.9298
2292.799147 0.9299 0.9300 0.9301 0.9303 0.9304
2287.810095 0.9305 0.9306 0.9307 0.9308 0.9310
2282.821044 0.9311 0.9312 0.9313 0.9315 0.9316
2277.831992 0.9317 0.9318 0.9318 0.9320 0.9321
2272.842941 0.9323 0.9324 0.9325 0.9327 0.9328
2267.853890 0.9328 0.9330 0.9331 0.9332 0.9334
2262.864838 0.9335 0.9336 0.9337 0.9339 0.9339
2257.875787 0.9339 0.9339 0.9340 0.9340 0.9341
2252.886735 0.9341 0.9342 0.9342 0.9343 0.9343
2247.897684 0.9344 0.9344 0.9345 0.9345 0.9346
2242.908632 0.9346 0.9347 0.9347 0.9348 0.9348
2237.919581 0.9349 0.9349 0.9350 0.9350 0.9351
2232.930529 0.9351 0.9352 0.9352 0.9352 0.9352
2227.941478 0.9352 0.9351 0.9351 0.9350 0.9350
2222.952426 0.9349 0.9349 0.9348 0.9348 0.9347
2217.963375 0.9346 0.9345 0.9345 0.9344 0.9344
2212.974324 0.9343 0.9343 0.9342 0.9342 0.9341
2207.985272 0.9340 0.9339 0.9339 0.9338 0.9338
2202.996221 0.9337 0.9337 0.9336 0.9336 0.9335
2198.007169 0.9334 0.9333 0.9333 0.9332 0.9332
2193.018118 0.9331 0.9331 0.9330 0.9330 0.9328
2188.029066 0.9328 0.9327 0.9327 0.9325 0.9325
2183.040015 0.9325 0.9325 0.9325 0.9325 0.9325
2178.050963 0.9325 0.9325 0.9325 0.9325 0.9325
2173.061912 0.9325 0.9327 0.9327 0.9327 0.9327
2168.072861 0.9327 0.9327 0.9327 0.9327 0.9328
2163.083809 0.9328 0.9328 0.9328 0.9328 0.9328
2158.094758 0.9328 0.9328 0.9328 0.9328 0.9328
2153.105706 0.9328 0.9328 0.9328 0.9328 0.9328
2148.116655 0.9328 0.9330 0.9331 0.9332 0.9333
2143.127603 0.9334 0.9335 0.9336 0.9337 0.9338
2138.138552 0.9339 0.9340 0.9341 0.9342 0.9343
2133.149500 0.9344 0.9345 0.9346 0.9347 0.9348
2128.160449 0.9349 0.9350 0.9351 0.9352 0.9353
2123.171397 0.9354 0.9355 0.9356 0.9358 0.9359
2118.182346 0.9360 0.9361 0.9363 0.9364 0.9365
2113.193295 0.9366 0.9368 0.9368 0.9370 0.9371
2108.204243 0.9373 0.9374 0.9375 0.9375 0.9375
2103.215192 0.9374 0.9374 0.9373 0.9373 0.9371
2098.226140 0.9371 0.9371 0.9371 0.9371 0.9371
2093.237089 0.9370 0.9370 0.9368 0.9368 0.9368
2088.248037 0.9368 0.9368 0.9368 0.9368 0.9368
2083.258986 0.9367 0.9367 0.9366 0.9366 0.9366
2078.269934 0.9366 0.9365 0.9365 0.9365 0.9365
2073.280883 0.9364 0.9364 0.9363 0.9363 0.9363
2068.291832 0.9363 0.9362 0.9362 0.9361 0.9360
2063.302780 0.9359 0.9358 0.9357 0.9356 0.9355
2058.313729 0.9354 0.9353 0.9352 0.9351 0.9350
2053.324677 0.9349 0.9348 0.9347 0.9346 0.9346
2048.335626 0.9346 0.9345 0.9345 0.9345 0.9345
2043.346574 0.9345 0.9345 0.9344 0.9344 0.9344
2038.357523 0.9344 0.9344 0.9344 0.9343 0.9343
2033.368471 0.9343 0.9343 0.9343 0.9343 0.9342
2028.379420 0.9342 0.9342 0.9342 0.9341 0.9341
2023.390368 0.9339 0.9335 0.9332 0.9329 0.9326
2018.401317 0.9323 0.9319 0.9317 0.9314 0.9311
2013.412266 0.9309 0.9307 0.9306 0.9304 0.9303
2008.423214 0.9302 0.9301 0.9299 0.9298 0.9296
2003.434163 0.9295 0.9293 0.9291 0.9288 0.9276
1998.445111 0.9273 0.9270 0.9268 0.9265 0.9263
1993.456060 0.9262 0.9261 0.9261 0.9261 0.9260
1988.467008 0.9260 0.9260 0.9259 0.9259 0.9260
1983.477957 0.9260 0.9261 0.9262 0.9263 0.9263
1978.488905 0.9265 0.9267 0.9270 0.9273 0.9277
1973.499854 0.9280 0.9282 0.9282 0.9281 0.9279
1968.510803 0.9277 0.9276 0.9279 0.9276 0.9269
1963.521751 0.9268 0.9267 0.9265 0.9263 0.9261
1958.532700 0.9260 0.9260 0.9260 0.9260 0.9260
1953.543648 0.9259 0.9259 0.9259 0.9259 0.9259
1948.554597 0.9259 0.9259 0.9259 0.9258 0.9258
1943.565545 0.9258 0.9257 0.9257 0.9256 0.9256
1938.576494 0.9255 0.9255 0.9254 0.9254 0.9253
1933.587442 0.9253 0.9252 0.9251 0.9251 0.9250
1928.598391 0.9250 0.9249 0.9248 0.9246 0.9244
1923.609339 0.9243 0.9241 0.9239 0.9238 0.9236
1918.620288 0.9234 0.9233 0.9231 0.9229 0.9227
1913.631237 0.9226 0.9225 0.9225 0.9226 0.9228
1908.642185 0.9228 0.9229 0.9231 0.9232 0.9233
1903.653134 0.9234 0.9235 0.9235 0.9236 0.9237
1898.664082 0.9238 0.9239 0.9240 0.9241 0.9242
1893.675031 0.9243 0.9245 0.9246 0.9248 0.9250
1888.685979 0.9251 0.9253 0.9255 0.9256 0.9258
1883.696928 0.9259 0.9261 0.9263 0.9264 0.9266
1878.707876 0.9268 0.9268 0.9270 0.9271 0.9272
1873.718825 0.9274 0.9275 0.9276 0.9278 0.9279
1868.729773 0.9281 0.9282 0.9283 0.9285 0.9286
1863.740722 0.9287 0.9289 0.9290 0.9291 0.9293
1858.751671 0.9293 0.9293 0.9294 0.9294 0.9294
1853.762619 0.9294 0.9295 0.9295 0.9295 0.9295
1848.773568 0.9296 0.9296 0.9296 0.9297 0.9297
1843.784516 0.9297 0.9297 0.9296 0.9296 0.9295
1838.795465 0.9295 0.9295 0.9294 0.9294 0.9293
1833.806413 0.9292 0.9292 0.9291 0.9291 0.9290
1828.817362 0.9290 0.9289 0.9288 0.9287 0.9286
1823.828310 0.9285 0.9283 0.9282 0.9280 0.9278
1818.839259 0.9277 0.9275 0.9274 0.9272 0.9271
1813.850208 0.9269 0.9268 0.9267 0.9265 0.9264
1808.861156 0.9262 0.9261 0.9259 0.9257 0.9256
1803.872105 0.9255 0.9254 0.9253 0.9252 0.9252
1798.883053 0.9251 0.9250 0.9250 0.9249 0.9247
1793.894002 0.9245 0.9242 0.9241 0.9240 0.9240
1788.904950 0.9240 0.9240 0.9240 0.9240 0.9241
1783.915899 0.9241 0.9243 0.9246 0.9248 0.9251
1778.926847 0.9254 0.9256 0.9259 0.9262 0.9264
1773.937796 0.9265 0.9265 0.9265 0.9265 0.9265
1768.948744 0.9265 0.9265 0.9265 0.9265 0.9265
1763.959693 0.9266 0.9266 0.9266 0.9267 0.9267
1758.970642 0.9267 0.9268 0.9268 0.9266 0.9264
1753.981590 0.9262 0.9258 0.9252 0.9235 0.9210
1748.992539 0.9186 0.9162 0.9136 0.9109 0.9083
1744.003487 0.9056 0.9030 0.9004 0.8977 0.8954
1739.014436 0.8935 0.8917 0.8902 0.8890 0.8880
1734.025384 0.8873 0.8870 0.8862 0.8858 0.8862
1729.036333 0.8863 0.8871 0.8882 0.8893 0.8904
1724.047281 0.8915 0.8931 0.8955 0.8982 0.9009
1719.058230 0.9038 0.9066 0.9093 0.9118 0.9142
1714.069179 0.9159 0.9170 0.9180 0.9192 0.9200
1709.080127 0.9204 0.9207 0.9210 0.9213 0.9216
1704.091076 0.9218 0.9218 0.9218 0.9218 0.9218
1699.102024 0.9218 0.9218 0.9217 0.9217 0.9217
1694.112973 0.9217 0.9217 0.9217 0.9216 0.9214
1689.123921 0.9213 0.9212 0.9211 0.9210 0.9209
1684.134870 0.9208 0.9207 0.9206 0.9205 0.9204
1679.145818 0.9202 0.9201 0.9200 0.9199 0.9198
1674.156767 0.9198 0.9197 0.9197 0.9196 0.9195
1669.167715 0.9195 0.9194 0.9194 0.9193 0.9193
1664.178664 0.9192 0.9192 0.9191 0.9191 0.9191
1659.189613 0.9191 0.9192 0.9193 0.9194 0.9195
1654.200561 0.9196 0.9197 0.9198 0.9199 0.9200
1649.211510 0.9201 0.9202 0.9203 0.9204 0.9205
1644.222458 0.9206 0.9207 0.9207 0.9208 0.9209
1639.233407 0.9210 0.9211 0.9212 0.9213 0.9214
1634.244355 0.9215 0.9216 0.9217 0.9218 0.9219
1629.255304 0.9220 0.9222 0.9223 0.9224 0.9225
1624.266252 0.9226 0.9227 0.9228 0.9229 0.9231
1619.277201 0.9233 0.9235 0.9237 0.9238 0.9240
1614.288150 0.9242 0.9243 0.9245 0.9248 0.9253
1609.299098 0.9258 0.9263 0.9267 0.9272 0.9277
1604.310047 0.9284 0.9294 0.9304 0.9314 0.9324
1599.320995 0.9334 0.9345 0.9358 0.9369 0.9374
1594.331944 0.9375 0.9375 0.9374 0.9372 0.9369
1589.342892 0.9365 0.9361 0.9357 0.9353 0.9348
1584.353841 0.9344 0.9342 0.9343 0.9345 0.9350
1579.364789 0.9355 0.9361 0.9367 0.9374 0.9381
1574.375738 0.9387 0.9394 0.9400 0.9407 0.9414
1569.386686 0.9421 0.9427 0.9434 0.9441 0.9448
1564.397635 0.9454 0.9458 0.9463 0.9467 0.9472
1559.408584 0.9476 0.9480 0.9485 0.9489 0.9493
1554.419532 0.9496 0.9499 0.9502 0.9505 0.9507
1549.430481 0.9510 0.9513 0.9515 0.9517 0.9519
1544.441429 0.9521 0.9521 0.9521 0.9519 0.9512
1539.452378 0.9505 0.9496 0.9484 0.9467 0.9450
1534.463326 0.9431 0.9408 0.9386 0.9364 0.9342
1529.474275 0.9319 0.9297 0.9275 0.9251 0.9226
1524.485223 0.9202 0.9177 0.9153 0.9129 0.9105
1519.496172 0.9082 0.9060 0.9038 0.9015 0.8992
1514.507121 0.8970 0.8948 0.8925 0.8901 0.8877
1509.518069 0.8854 0.8830 0.8807 0.8783 0.8759
1504.529018 0.8731 0.8691 0.8649 0.8607 0.8565
1499.539966 0.8522 0.8478 0.8435 0.8391 0.8348
1494.550915 0.8304 0.8256 0.8199 0.8138 0.8078
1489.561863 0.8013 0.7935 0.7849 0.7764 0.7688
1484.572812 0.7616 0.7545 0.7475 0.7371 0.7187
1479.583760 0.6985 0.6825 0.6663 0.6498 0.6244
1474.594709 0.5873 0.5471 0.4866 0.4188 0.3511
1469.605657 0.2833 0.2262 0.2008 0.1991 0.1983
1464.616606 0.1976 0.1969 0.1964 0.1958 0.1953
1459.627555 0.1949 0.1945 0.1944 0.1944 0.1953
1454.638503 0.1982 0.2022 0.2145 0.2422 0.2701
1449.649452 0.2979 0.3256 0.3534 0.3813 0.4091
1444.660400 0.4369 0.4647 0.4926 0.5204 0.5547
1439.671349 0.5926 0.6123 0.6268 0.6461 0.6708
1434.682297 0.6886 0.7033 0.7154 0.7252 0.7349
1429.693246 0.7439 0.7511 0.7573 0.7637 0.7701
1424.704194 0.7763 0.7820 0.7874 0.7927 0.7980
1419.715143 0.8031 0.8078 0.8124 0.8165 0.8196
1414.726092 0.8221 0.8246 0.8271 0.8294 0.8313
1409.737040 0.8332 0.8347 0.8356 0.8365 0.8373
1404.747989 0.8379 0.8389 0.8398 0.8389 0.8386
1399.758937 0.8380 0.8374 0.8363 0.8350 0.8335
1394.769886 0.8309 0.8266 0.8224 0.8172 0.8093
1389.780834 0.7996 0.7862 0.7652 0.7451 0.7288
1384.791783 0.7087 0.6563 0.5637 0.4711 0.4001
1379.802731 0.3826 0.3843 0.3847 0.3946 0.4241
1374.813680 0.4632 0.5021 0.5411 0.5800 0.6190
1369.824628 0.6579 0.6969 0.7306 0.7483 0.7552
1364.835577 0.7606 0.7632 0.7665 0.7783 0.8017
1359.846526 0.8172 0.8281 0.8366 0.8441 0.8511
1354.857474 0.8570 0.8609 0.8640 0.8665 0.8686
1349.868423 0.8703 0.8711 0.8707 0.8707 0.8689
1344.879371 0.8629 0.8557 0.8485 0.8414 0.8361
1339.890320 0.8348 0.8346 0.8375 0.8427 0.8480
1334.901268 0.8532 0.8585 0.8637 0.8689 0.8742
1329.912217 0.8809 0.8861 0.8819 0.8805 0.8767
1324.923165 0.8727 0.8768 0.8769 0.8775 0.8790
1319.934114 0.8809 0.8836 0.8860 0.8877 0.8904
1314.945063 0.8927 0.8901 0.8902 0.8902 0.8900
1309.956011 0.8894 0.8879 0.8861 0.8838 0.8808
1304.966960 0.8771 0.8727 0.8676 0.8627 0.8650
1299.977908 0.8656 0.8668 0.8682 0.8692 0.8690
1294.988857 0.8686 0.8675 0.8664 0.8653 0.8643
1289.999805 0.8636 0.8634 0.8631 0.8635 0.8652
1285.010754 0.8671 0.8692 0.8713 0.8737 0.8766
1280.021702 0.8798 0.8841 0.8889 0.8884 0.8871
1275.032651 0.8838 0.8797 0.8763 0.8734 0.8706
1270.043599 0.8679 0.8652 0.8622 0.8592 0.8568
1265.054548 0.8559 0.8552 0.8548 0.8533 0.8512
1260.065497 0.8555 0.8617 0.8688 0.8751 0.8794
1255.076445 0.8837 0.8878 0.8912 0.8945 0.8978
1250.087394 0.9011 0.9042 0.9067 0.9089 0.9111
1245.098342 0.9131 0.9151 0.9168 0.9180 0.9191
1240.109291 0.9199 0.9200 0.9200 0.9200 0.9200
1235.120239 0.9200 0.9200 0.9201 0.9204 0.9213
1230.131188 0.9224 0.9235 0.9250 0.9272 0.9292
1225.142136 0.9309 0.9321 0.9333 0.9345 0.9356
1220.153085 0.9364 0.9370 0.9377 0.9384 0.9391
1215.164034 0.9397 0.9401 0.9403 0.9404 0.9404
1210.174982 0.9404 0.9402 0.9401 0.9400 0.9399
1205.185931 0.9400 0.9405 0.9410 0.9415 0.9420
1200.196879 0.9428 0.9443 0.9459 0.9486 0.9524
1195.207828 0.9515 0.9527 0.9533 0.9538 0.9542
1190.218776 0.9542 0.9541 0.9537 0.9532 0.9526
1185.229725 0.9519 0.9511 0.9503 0.9494 0.9486
1180.240673 0.9478 0.9468 0.9457 0.9444 0.9431
1175.251622 0.9418 0.9407 0.9393 0.9379 0.9364
1170.262570 0.9350 0.9336 0.9322 0.9312 0.9303
1165.273519 0.9298 0.9299 0.9300 0.9301 0.9301
1160.284468 0.9302 0.9304 0.9305 0.9306 0.9308
1155.295416 0.9308 0.9308 0.9305 0.9299 0.9284
1150.306365 0.9253 0.9211 0.9173 0.9144 0.9114
1145.317313 0.9086 0.9058 0.9033 0.9014 0.9005
1140.328262 0.8999 0.8996 0.8996 0.9000 0.9013
1135.339210 0.9029 0.9045 0.9081 0.9165 0.9198
1130.350159 0.9231 0.9264 0.9297 0.9329 0.9361
1125.361107 0.9386 0.9411 0.9437 0.9462 0.9486
1120.372056 0.9501 0.9513 0.9524 0.9536 0.9548
1115.383005 0.9560 0.9569 0.9575 0.9581 0.9584
1110.393953 0.9588 0.9591 0.9594 0.9598 0.9609
1105.404902 0.9630 0.9608 0.9611 0.9611 0.9611
1100.415850 0.9609 0.9607 0.9605 0.9604 0.9602
1095.426799 0.9599 0.9597 0.9595 0.9593 0.9590
1090.437747 0.9588 0.9586 0.9584 0.9582 0.9580
1085.448696 0.9578 0.9576 0.9563 0.9544 0.9518
1080.459644 0.9491 0.9461 0.9428 0.9390 0.9351
1075.470593 0.9313 0.9281 0.9255 0.9236 0.9226
1070.481541 0.9220 0.9215 0.9208 0.9216 0.9221
1065.492490 0.9238 0.9258 0.9283 0.9328 0.9372
1060.503439 0.9403 0.9433 0.9459 0.9482 0.9504
1055.514387 0.9520 0.9535 0.9548 0.9553 0.9557
1050.525336 0.9562 0.9566 0.9570 0.9568 0.9567
1045.536284 0.9563 0.9557 0.9551 0.9539 0.9525
1040.547233 0.9511 0.9497 0.9479 0.9461 0.9442
1035.558181 0.9424 0.9405 0.9386 0.9367 0.9347
1030.569130 0.9326 0.9304 0.9278 0.9251 0.9227
1025.580078 0.9211 0.9199 0.9192 0.9188 0.9187
1020.591027 0.9193 0.9198 0.9199 0.9199 0.9199
1015.601976 0.9197 0.9189 0.9186 0.9200 0.9222
1010.612924 0.9243 0.9264 0.9281 0.9299 0.9316
1005.623873 0.9333 0.9349 0.9359 0.9370 0.9380
1000.634821 0.9390 0.9401 0.9411 0.9419 0.9424
995.645770 0.9429 0.9433 0.9433 0.9432 0.9427
990.656718 0.9422 0.9418 0.9416 0.9413 0.9410
985.667667 0.9408 0.9409 0.9424 0.9442 0.9460
980.678615 0.9478 0.9496 0.9511 0.9517 0.9522
975.689564 0.9529 0.9536 0.9542 0.9548 0.9554
970.700512 0.9557 0.9560 0.9563 0.9566 0.9569
965.711461 0.9572 0.9576 0.9578 0.9580 0.9581
960.722410 0.9581 0.9582 0.9583 0.9583 0.9584
955.733358 0.9585 0.9586 0.9586 0.9587 0.9588
950.744307 0.9588 0.9589 0.9591 0.9592 0.9593
945.755255 0.9593 0.9593 0.9593 0.9592 0.9592
940.766204 0.9592 0.9592 0.9591 0.9591 0.9590
935.777152 0.9589 0.9588 0.9587 0.9583 0.9577
930.788101 0.9570 0.9563 0.9557 0.9548 0.9528
925.799049 0.9503 0.9463 0.9423 0.9379 0.9321
920.809998 0.9228 0.9059 0.8844 0.8720 0.8714
915.820946 0.8719 0.8776 0.8834 0.8891 0.8943
910.831895 0.8957 0.8938 0.8760 0.8364 0.8196
905.842844 0.8185 0.8205 0.8282 0.8359 0.8436
900.853792 0.8513 0.8590 0.8667 0.8744 0.8821
895.864741 0.8894 0.8950 0.8991 0.9031 0.9072
890.875689 0.9119 0.9182 0.9229 0.9261 0.9290
885.886638 0.9305 0.9314 0.9319 0.9325 0.9330
880.897586 0.9328 0.9324 0.9297 0.9259 0.9222
875.908535 0.9185 0.9147 0.9110 0.9073 0.9029
870.919483 0.8947 0.8823 0.8752 0.8691 0.8629
865.930432 0.8568 0.8507 0.8445 0.8384 0.8335
860.941381 0.8347 0.8316 0.8316 0.8335 0.8423
855.952329 0.8537 0.8653 0.8769 0.8884 0.8999
850.963278 0.9114 0.9227 0.9318 0.9372 0.9406
845.974226 0.9423 0.9439 0.9447 0.9444 0.9435
840.985175 0.9423 0.9413 0.9412 0.9422 0.9432
835.996123 0.9443 0.9457 0.9473 0.9488 0.9503
831.007072 0.9518 0.9532 0.9546 0.9560 0.9573
826.018020 0.9588 0.9601 0.9614 0.9627 0.9639
821.028969 0.9652 0.9664 0.9668 0.9671 0.9676
816.039917 0.9680 0.9685 0.9689 0.9693 0.9696
811.050866 0.9699 0.9702 0.9705 0.9706 0.9707
806.061815 0.9707 0.9707 0.9710 0.9701 0.9691
801.072763 0.9681 0.9672 0.9665 0.9661 0.9657
796.083712 0.9653 0.9649 0.9647 0.9646 0.9644
791.094660 0.9642 0.9641 0.9641 0.9641 0.9641
786.105609 0.9641 0.9641 0.9642 0.9643 0.9645
781.116557 0.9647 0.9650 0.9652 0.9653 0.9652
776.127506 0.9645 0.9632 0.9606 0.9569 0.9512
771.138454 0.9456 0.9399 0.9342 0.9285 0.9228
766.149403 0.9171 0.9116 0.9084 0.9084 0.9082
761.160352 0.9092 0.9134 0.9175 0.9217 0.9259
756.171300 0.9300 0.9342 0.9382 0.9424 0.9448
751.182249 0.9451 0.9452 0.9438 0.9461 0.9458
746.193197 0.9448 0.9396 0.9292 0.9188 0.9083
741.204146 0.8979 0.8874 0.8770 0.8665 0.8561
736.215094 0.8457 0.8352 0.8248 0.8144 0.8040
731.226043 0.7935 0.7836 0.7793 0.7794 0.7845
726.236991 0.7781 0.7786 0.7805 0.7877 0.8068
721.247940 0.8261 0.8452 0.8643 0.8834 0.9007
716.258888 0.9056 0.9104 0.9153 0.9199 0.9234
711.269837 0.9269 0.9305 0.9339 0.9368 0.9391
706.280786 0.9414 0.9437 0.9460 0.9478 0.9492
701.291734 0.9506 0.9519 0.9534 0.9548 0.9562
696.302683 0.9576 0.9588 0.9595 0.9603 0.9610
691.313631 0.9617 0.9624 0.9630 0.9636 0.9638
686.324580 0.9639 0.9641 0.9642 0.9643 0.9645
681.335528 0.9646 0.9646 0.9644 0.9643 0.9641
676.346477 0.9640 0.9638 0.9637 0.9635 0.9634
671.357425 0.9632 0.9631 0.9628 0.9627 0.9625
666.368374 0.9624 0.9621 0.9621 0.9618 0.9618
661.379323 0.9617 0.9616 0.9615 0.9614 0.9614
656.390271 0.9613 0.9612 0.9611 0.9611 0.9610
651.401220 0.9610 0.9609 0.9608 0.9607 0.9607
646.412168 0.9606 0.9606 0.9605 0.9604 0.9604
641.423117 0.9603 0.9602 0.9602 0.9601 0.9600
636.434065 0.9600 0.9599 0.9599 0.9598 0.9598
631.445014 0.9598 0.9598 0.9597 0.9597 0.9597
626.455962 0.9597 0.9597 0.9597 0.9597 0.9597
621.466911 0.9596 0.9596 0.9596 0.9596 0.9596
616.477859 0.9597 0.9597 0.9598 0.9599 0.9600
611.488808 0.9600 0.9601 0.9602 0.9603 0.9603
606.499757 0.9604 0.9605 0.9606 0.9606 0.9607
601.510705 0.9607 0.9607 0.9606 0.9606 0.9606
596.521654 0.9605 0.9605 0.9605 0.9604 0.9604
591.532602 0.9604 0.9603 0.9603 0.9603 0.9602
586.543551 0.9602 0.9602 0.9601 0.9601 0.9601
581.554499 0.9602 0.9602 0.9603 0.9603 0.9603
576.565448 0.9604 0.9604 0.9604 0.9604 0.9604
571.576396 0.9604 0.9603 0.9603 0.9603 0.9599
566.587345 0.9594 0.9589 0.9584 0.9578 0.9574
561.598294 0.9568 0.9564 0.9558 0.9547 0.9533
556.609242 0.9518 0.9504 0.9489 0.9477 0.9465
551.620191 0.9453 0.9441 0.9428 0.9417 0.9405
546.631139 0.9395 0.9386 0.9375 0.9367 0.9357
541.642088 0.9350 0.9349 0.9349 0.9349 0.9348
536.653036 0.9348 0.9348 0.9347 0.9347 0.9347
531.663985 0.9346 0.9346 0.9346 0.9345 0.9345
526.674933 0.9345 0.9343 0.9337 0.9331 0.9324
521.685882 0.9318 0.9312 0.9306 0.9300 0.9293
516.696830 0.9283 0.9271 0.9260 0.9248 0.9237
511.707779 0.9225 0.9213 0.9202 0.9190 0.9177
506.718728 0.9162 0.9147 0.9132 0.9116 0.9101
501.729676 0.9086 0.9071 0.9058 0.9043 0.9028
496.740625 0.9015 0.9000 0.8986 0.8971 0.8958
491.751573 0.8944 0.8930 0.8917 0.8905 0.8893
486.762522 0.8881 0.8866 0.8851
##END=
