##TITLE=n-Pentane
##JCAMP-DX=4.24
##DATA TYPE=INFRARED SPECTRUM
##CLASS=COBLENTZ III
##ORIGIN=WESTERN REGIONAL RES. USDA
##OWNER=Copyright (C) 1987 by the Coblentz Society
Collection (C) 2018 copyright by the U.S. Secretary of Commerce
on behalf of the United States of America. All rights reserved.
##DATE=1965/09/30
##NAMES=pentane
##CAS REGISTRY NO=109-66-0
##MOLFORM=C5 H12
##SOURCE REFERENCE=COBLENTZ NO. 6304
##$NIST SOURCE=COBLENTZ
##$NIST IMAGE=cob6304
##SPECTROMETER/DATA SYSTEM=CARY 90 (GRATING)
##INSTRUMENT PARAMETERS=ORDER CHANGES: 3000, 2000, 1200 CM^-^1
##STATE=LIQUID (NEAT)
##PATH LENGTH=0.01 CM
##RESOLUTION=2
##XUNITS=1/CM
##YUNITS=TRANSMITTANCE
##XFACTOR=1.0
##YFACTOR=1
##FIRSTX=448
##LASTX=4018
##FIRSTY=0.4585
##MAXX=4018
##MINX=448
##MAXY=0.9659
##MINY=0.0033
##NPOINTS=3571
##XYDATA=(X++(Y..Y))
448.000000 0.4585 0.4616 0.4648 0.4679 0.4710
453.000000 0.4741 0.4771 0.4801 0.4831 0.4861
458.000000 0.4891 0.4926 0.4961 0.4997 0.5032
463.000000 0.5067 0.5103 0.5138 0.5183 0.5229
468.000000 0.5275 0.5321 0.5367 0.5414 0.5460
473.000000 0.5507 0.5556 0.5605 0.5655 0.5704
478.000000 0.5753 0.5802 0.5851 0.5899 0.5946
483.000000 0.5993 0.6041 0.6088 0.6135 0.6183
488.000000 0.6235 0.6287 0.6340 0.6393 0.6445
493.000000 0.6494 0.6542 0.6590 0.6637 0.6682
498.000000 0.6722 0.6763 0.6803 0.6844 0.6872
503.000000 0.6895 0.6919 0.6943 0.6966 0.6990
508.000000 0.7013 0.7036 0.7058 0.7081 0.7103
513.000000 0.7126 0.7148 0.7170 0.7193 0.7215
518.000000 0.7237 0.7260 0.7282 0.7304 0.7327
523.000000 0.7349 0.7371 0.7394 0.7416 0.7438
528.000000 0.7461 0.7483 0.7505 0.7528 0.7552
533.000000 0.7575 0.7598 0.7621 0.7644 0.7667
538.000000 0.7710 0.7759 0.7807 0.7854 0.7898
543.000000 0.7941 0.7985 0.8029 0.8074 0.8119
548.000000 0.8164 0.8209 0.8252 0.8286 0.8321
553.000000 0.8355 0.8389 0.8423 0.8453 0.8482
558.000000 0.8512 0.8541 0.8571 0.8601 0.8631
563.000000 0.8661 0.8692 0.8722 0.8746 0.8770
568.000000 0.8794 0.8819 0.8843 0.8862 0.8876
573.000000 0.8890 0.8904 0.8914 0.8922 0.8931
578.000000 0.8939 0.8947 0.8955 0.8963 0.8969
583.000000 0.8971 0.8974 0.8976 0.8978 0.8981
588.000000 0.8983 0.8984 0.8985 0.8986 0.8988
593.000000 0.8989 0.8990 0.8993 0.8998 0.9003
598.000000 0.9008 0.9013 0.9018 0.9029 0.9041
603.000000 0.9053 0.9064 0.9076 0.9088 0.9098
608.000000 0.9107 0.9117 0.9126 0.9124 0.9122
613.000000 0.9119 0.9116 0.9114 0.9110 0.9105
618.000000 0.9100 0.9095 0.9090 0.9085 0.9079
623.000000 0.9074 0.9068 0.9062 0.9056 0.9050
628.000000 0.9048 0.9048 0.9048 0.9048 0.9048
633.000000 0.9048 0.9066 0.9047 0.9051 0.9059
638.000000 0.9066 0.9074 0.9082 0.9089 0.9096
643.000000 0.9102 0.9108 0.9115 0.9121 0.9127
648.000000 0.9130 0.9133 0.9137 0.9126 0.9115
653.000000 0.9104 0.9092 0.9077 0.9062 0.9046
658.000000 0.9030 0.9014 0.8997 0.8981 0.8964
663.000000 0.8948 0.8930 0.8912 0.8894 0.8875
668.000000 0.8858 0.8845 0.8831 0.8818 0.8805
673.000000 0.8811 0.8818 0.8827 0.8837 0.8846
678.000000 0.8849 0.8852 0.8856 0.8852 0.8846
683.000000 0.8818 0.8783 0.8747 0.8711 0.8673
688.000000 0.8629 0.8585 0.8535 0.8484 0.8433
693.000000 0.8382 0.8329 0.8275 0.8221 0.8168
698.000000 0.8114 0.8047 0.7978 0.7909 0.7841
703.000000 0.7709 0.7545 0.7381 0.7217 0.7053
708.000000 0.6889 0.6725 0.6560 0.6396 0.6234
713.000000 0.6080 0.5795 0.5320 0.4846 0.4371
718.000000 0.3896 0.3422 0.2947 0.2472 0.2125
723.000000 0.2095 0.2076 0.2095 0.2057 0.2059
728.000000 0.2066 0.2083 0.2250 0.2551 0.2852
733.000000 0.3152 0.3453 0.3754 0.4054 0.4355
738.000000 0.4656 0.4957 0.5257 0.5558 0.5859
743.000000 0.6159 0.6460 0.6761 0.7061 0.7152
748.000000 0.7157 0.7144 0.7129 0.7109 0.7029
753.000000 0.6833 0.6636 0.6439 0.6243 0.6046
758.000000 0.5850 0.5666 0.5652 0.5679 0.5658
763.000000 0.5668 0.5675 0.5807 0.6050 0.6294
768.000000 0.6537 0.6780 0.7023 0.7267 0.7510
773.000000 0.7753 0.7854 0.7898 0.7931 0.7955
778.000000 0.7970 0.7978 0.7981 0.7985 0.7988
783.000000 0.7992 0.8001 0.8051 0.8120 0.8180
788.000000 0.8240 0.8315 0.8397 0.8478 0.8558
793.000000 0.8638 0.8700 0.8723 0.8745 0.8758
798.000000 0.8762 0.8763 0.8760 0.8757 0.8754
803.000000 0.8749 0.8788 0.8735 0.8728 0.8720
808.000000 0.8713 0.8706 0.8699 0.8691 0.8684
813.000000 0.8676 0.8666 0.8657 0.8648 0.8639
818.000000 0.8630 0.8620 0.8611 0.8601 0.8589
823.000000 0.8576 0.8563 0.8551 0.8487 0.8390
828.000000 0.8293 0.8195 0.8098 0.8001 0.7903
833.000000 0.7806 0.7709 0.7611 0.7525 0.7516
838.000000 0.7511 0.7507 0.7505 0.7504 0.7502
843.000000 0.7500 0.7471 0.7199 0.6927 0.6655
848.000000 0.6383 0.6112 0.5840 0.5568 0.5296
853.000000 0.5024 0.4752 0.4499 0.4488 0.4487
858.000000 0.4493 0.4496 0.4595 0.4765 0.4934
863.000000 0.5103 0.5273 0.5442 0.5611 0.5781
868.000000 0.5950 0.6120 0.6289 0.6458 0.6628
873.000000 0.6797 0.6967 0.7136 0.7298 0.7299
878.000000 0.7295 0.7322 0.7284 0.7277 0.7229
883.000000 0.7025 0.6821 0.6616 0.6412 0.6208
888.000000 0.6004 0.5800 0.5595 0.5391 0.5187
893.000000 0.4983 0.4778 0.4574 0.4370 0.4166
898.000000 0.3962 0.3757 0.3553 0.3349 0.3174
903.000000 0.3171 0.3178 0.3625 0.4587 0.5068
908.000000 0.5064 0.4969 0.4818 0.4667 0.4517
913.000000 0.4366 0.4265 0.4262 0.4594 0.4935
918.000000 0.5276 0.5616 0.5957 0.6298 0.6639
923.000000 0.6979 0.7320 0.7661 0.7939 0.8030
928.000000 0.8101 0.8151 0.8202 0.8239 0.8273
933.000000 0.8307 0.8341 0.8375 0.8408 0.8441
938.000000 0.8473 0.8495 0.8515 0.8530 0.8545
943.000000 0.8539 0.8540 0.8531 0.8521 0.8510
948.000000 0.8497 0.8485 0.8472 0.8464 0.8458
953.000000 0.8452 0.8447 0.8442 0.8438 0.8435
958.000000 0.8431 0.8427 0.8424 0.8421 0.8419
963.000000 0.8417 0.8416 0.8415 0.8414 0.8413
968.000000 0.8412 0.8412 0.8411 0.8408 0.8380
973.000000 0.8351 0.8322 0.8260 0.8152 0.8045
978.000000 0.7937 0.7830 0.7723 0.7615 0.7508
983.000000 0.7481 0.7491 0.7492 0.7572 0.7651
988.000000 0.7731 0.7810 0.7850 0.7852 0.7847
993.000000 0.7834 0.7836 0.7788 0.7737 0.7688
998.000000 0.7607 0.7519 0.7440 0.7361 0.7283
1003.000000 0.7188 0.7092 0.6995 0.6900 0.6811
1008.000000 0.6729 0.6717 0.6717 0.6717 0.6726
1013.000000 0.6782 0.6815 0.6712 0.6610 0.6507
1018.000000 0.6405 0.6302 0.6200 0.6180 0.6224
1023.000000 0.6223 0.6427 0.6631 0.6836 0.7040
1028.000000 0.7244 0.7339 0.7350 0.7361 0.7374
1033.000000 0.7388 0.7413 0.7541 0.7669 0.7797
1038.000000 0.7924 0.8052 0.8132 0.8179 0.8224
1043.000000 0.8265 0.8307 0.8325 0.8339 0.8343
1048.000000 0.8338 0.8370 0.8318 0.8291 0.8230
1053.000000 0.8105 0.7979 0.7854 0.7728 0.7603
1058.000000 0.7477 0.7352 0.7223 0.7117 0.7021
1063.000000 0.6955 0.6939 0.6952 0.6963 0.6987
1068.000000 0.7020 0.7052 0.7083 0.7178 0.7314
1073.000000 0.7451 0.7588 0.7724 0.7861 0.7997
1078.000000 0.8134 0.8241 0.8281 0.8321 0.8359
1083.000000 0.8391 0.8423 0.8456 0.8491 0.8526
1088.000000 0.8561 0.8578 0.8593 0.8609 0.8618
1093.000000 0.8621 0.8624 0.8623 0.8627 0.8610
1098.000000 0.8604 0.8597 0.8589 0.8580 0.8571
1103.000000 0.8562 0.8553 0.8542 0.8531 0.8521
1108.000000 0.8510 0.8499 0.8486 0.8469 0.8450
1113.000000 0.8418 0.8379 0.8328 0.8276 0.8200
1118.000000 0.8127 0.8061 0.7995 0.7929 0.7863
1123.000000 0.7783 0.7698 0.7518 0.7273 0.7028
1128.000000 0.6783 0.6539 0.6294 0.6049 0.5804
1133.000000 0.5600 0.5603 0.5637 0.5613 0.5652
1138.000000 0.5704 0.5756 0.5808 0.5860 0.5912
1143.000000 0.5964 0.6016 0.6179 0.6410 0.6640
1148.000000 0.6871 0.7102 0.7333 0.7423 0.7421
1153.000000 0.7419 0.7417 0.7414 0.7411 0.7413
1158.000000 0.7415 0.7420 0.7425 0.7433 0.7473
1163.000000 0.7527 0.7581 0.7635 0.7689 0.7743
1168.000000 0.7797 0.7852 0.7906 0.7960 0.8014
1173.000000 0.8068 0.8122 0.8176 0.8230 0.8284
1178.000000 0.8334 0.8381 0.8418 0.8455 0.8490
1183.000000 0.8516 0.8542 0.8559 0.8572 0.8583
1188.000000 0.8592 0.8601 0.8610 0.8619 0.8628
1193.000000 0.8629 0.8631 0.8631 0.8662 0.8630
1198.000000 0.8629 0.8623 0.8614 0.8596 0.8578
1203.000000 0.8557 0.8531 0.8489 0.8448 0.8398
1208.000000 0.8332 0.8270 0.8243 0.8226 0.8213
1213.000000 0.8216 0.8219 0.8231 0.8243 0.8254
1218.000000 0.8260 0.8259 0.8258 0.8254 0.8227
1223.000000 0.8183 0.8130 0.8060 0.7983 0.7902
1228.000000 0.7814 0.7727 0.7608 0.7488 0.7400
1233.000000 0.7387 0.7384 0.7402 0.7470 0.7515
1238.000000 0.7530 0.7529 0.7525 0.7520 0.7505
1243.000000 0.7480 0.7445 0.7410 0.7373 0.7324
1248.000000 0.7270 0.7231 0.7193 0.7154 0.7107
1253.000000 0.7059 0.7011 0.6908 0.6496 0.6085
1258.000000 0.5674 0.5635 0.5661 0.5642 0.5831
1263.000000 0.6059 0.6286 0.6514 0.6742 0.6969
1268.000000 0.7197 0.7382 0.7447 0.7507 0.7552
1273.000000 0.7597 0.7626 0.7649 0.7656 0.7650
1278.000000 0.7643 0.7626 0.7605 0.7583 0.7526
1283.000000 0.7467 0.7408 0.7349 0.7290 0.7231
1288.000000 0.7172 0.7113 0.7054 0.6995 0.6934
1293.000000 0.6873 0.6811 0.6749 0.6686 0.6624
1298.000000 0.6471 0.6316 0.6162 0.6008 0.5854
1303.000000 0.5742 0.5755 0.5744 0.5761 0.5929
1308.000000 0.6096 0.6264 0.6431 0.6599 0.6766
1313.000000 0.6873 0.6883 0.6896 0.6895 0.6890
1318.000000 0.6882 0.6873 0.6777 0.6647 0.6517
1323.000000 0.6387 0.6257 0.6158 0.6142 0.6131
1328.000000 0.6120 0.6109 0.6096 0.6075 0.6053
1333.000000 0.6010 0.5787 0.5393 0.5000 0.4607
1338.000000 0.4513 0.4515 0.4534 0.4801 0.5059
1343.000000 0.5318 0.5577 0.5835 0.5924 0.5928
1348.000000 0.5917 0.5870 0.5804 0.5739 0.5674
1353.000000 0.5609 0.5543 0.5261 0.4903 0.4545
1358.000000 0.4187 0.3829 0.3470 0.3202 0.3102
1363.000000 0.2979 0.2851 0.2757 0.2662 0.2501
1368.000000 0.2241 0.1963 0.1685 0.1407 0.1129
1373.000000 0.0852 0.0574 0.0296 0.0221 0.0206
1378.000000 0.0206 0.0152 0.0217 0.0411 0.0660
1383.000000 0.0910 0.1160 0.1409 0.1659 0.1908
1388.000000 0.2158 0.2407 0.2657 0.2906 0.3156
1393.000000 0.3405 0.3655 0.3905 0.4154 0.4404
1398.000000 0.4566 0.4615 0.4649 0.4665 0.4668
1403.000000 0.4667 0.4679 0.4656 0.4644 0.4625
1408.000000 0.4605 0.4565 0.4504 0.4430 0.4356
1413.000000 0.4282 0.4208 0.4135 0.4061 0.3987
1418.000000 0.3913 0.3839 0.3765 0.3691 0.3617
1423.000000 0.3543 0.3383 0.3291 0.3195 0.3089
1428.000000 0.2980 0.2677 0.2387 0.2237 0.2089
1433.000000 0.1937 0.1770 0.1585 0.1413 0.1254
1438.000000 0.1095 0.0966 0.0838 0.0653 0.0491
1443.000000 0.0404 0.0323 0.0263 0.0203 0.0157
1448.000000 0.0121 0.0094 0.0072 0.0063 0.0054
1453.000000 0.0047 0.0045 0.0042 0.0042 0.0042
1458.000000 0.0042 0.0043 0.0045 0.0043 0.0049
1463.000000 0.0052 0.0055 0.0059 0.0062 0.0068
1468.000000 0.0076 0.0084 0.0092 0.0103 0.0115
1473.000000 0.0131 0.0158 0.0302 0.0471 0.0640
1478.000000 0.0809 0.0978 0.1147 0.1316 0.1486
1483.000000 0.1655 0.1824 0.1993 0.2162 0.2331
1488.000000 0.2500 0.2669 0.2824 0.3308 0.3513
1493.000000 0.3626 0.3738 0.3863 0.3997 0.4181
1498.000000 0.4787 0.4912 0.5036 0.5161 0.5253
1503.000000 0.5337 0.5421 0.5507 0.5637 0.5779
1508.000000 0.6129 0.6238 0.6311 0.6385 0.6458
1513.000000 0.6517 0.6567 0.6616 0.6665 0.6715
1518.000000 0.6764 0.6825 0.6894 0.6962 0.7020
1523.000000 0.7069 0.7118 0.7168 0.7217 0.7264
1528.000000 0.7309 0.7355 0.7400 0.7446 0.7491
1533.000000 0.7531 0.7563 0.7594 0.7625 0.7657
1538.000000 0.7688 0.7720 0.7748 0.7769 0.7790
1543.000000 0.7811 0.7832 0.7852 0.7873 0.7894
1548.000000 0.7915 0.7936 0.7956 0.7976 0.7996
1553.000000 0.8015 0.8035 0.8055 0.8072 0.8086
1558.000000 0.8100 0.8115 0.8129 0.8144 0.8158
1563.000000 0.8167 0.8173 0.8180 0.8187 0.8194
1568.000000 0.8201 0.8208 0.8214 0.8221 0.8228
1573.000000 0.8234 0.8239 0.8243 0.8248 0.8252
1578.000000 0.8256 0.8261 0.8265 0.8270 0.8274
1583.000000 0.8279 0.8280 0.8281 0.8282 0.8288
1588.000000 0.8299 0.8311 0.8322 0.8333 0.8344
1593.000000 0.8356 0.8367 0.8378 0.8389 0.8404
1598.000000 0.8427 0.8450 0.8474 0.8497 0.8520
1603.000000 0.8544 0.8568 0.8591 0.8613 0.8633
1608.000000 0.8650 0.8657 0.8663 0.8670 0.8676
1613.000000 0.8683 0.8689 0.8696 0.8704 0.8712
1618.000000 0.8716 0.8720 0.8725 0.8729 0.8734
1623.000000 0.8738 0.8742 0.8746 0.8748 0.8750
1628.000000 0.8751 0.8753 0.8755 0.8756 0.8758
1633.000000 0.8760 0.8761 0.8762 0.8762 0.8762
1638.000000 0.8762 0.8763 0.8762 0.8759 0.8757
1643.000000 0.8755 0.8752 0.8750 0.8748 0.8745
1648.000000 0.8743 0.8740 0.8736 0.8733 0.8729
1653.000000 0.8726 0.8722 0.8719 0.8713 0.8705
1658.000000 0.8697 0.8689 0.8681 0.8673 0.8665
1663.000000 0.8655 0.8647 0.8652 0.8657 0.8661
1668.000000 0.8667 0.8675 0.8683 0.8691 0.8698
1673.000000 0.8706 0.8714 0.8722 0.8732 0.8741
1678.000000 0.8751 0.8761 0.8771 0.8782 0.8794
1683.000000 0.8805 0.8817 0.8828 0.8840 0.8851
1688.000000 0.8863 0.8874 0.8885 0.8895 0.8905
1693.000000 0.8915 0.8925 0.8934 0.8944 0.8954
1698.000000 0.8964 0.8974 0.8984 0.8993 0.9002
1703.000000 0.9010 0.9018 0.9025 0.9033 0.9040
1708.000000 0.9048 0.9055 0.9063 0.9071 0.9078
1713.000000 0.9086 0.9093 0.9098 0.9101 0.9104
1718.000000 0.9108 0.9111 0.9114 0.9118 0.9121
1723.000000 0.9124 0.9118 0.9111 0.9104 0.9101
1728.000000 0.9099 0.9097 0.9095 0.9093 0.9092
1733.000000 0.9090 0.9088 0.9086 0.9085 0.9092
1738.000000 0.9100 0.9111 0.9124 0.9137 0.9150
1743.000000 0.9163 0.9174 0.9185 0.9195 0.9206
1748.000000 0.9216 0.9226 0.9237 0.9246 0.9254
1753.000000 0.9262 0.9271 0.9279 0.9287 0.9291
1758.000000 0.9295 0.9298 0.9302 0.9305 0.9306
1763.000000 0.9306 0.9307 0.9307 0.9307 0.9307
1768.000000 0.9308 0.9307 0.9305 0.9304 0.9302
1773.000000 0.9300 0.9299 0.9297 0.9295 0.9294
1778.000000 0.9298 0.9302 0.9306 0.9310 0.9315
1783.000000 0.9321 0.9327 0.9333 0.9339 0.9346
1788.000000 0.9353 0.9359 0.9366 0.9373 0.9379
1793.000000 0.9386 0.9393 0.9396 0.9399 0.9402
1798.000000 0.9405 0.9408 0.9411 0.9414 0.9416
1803.000000 0.9418 0.9419 0.9420 0.9422 0.9423
1808.000000 0.9425 0.9426 0.9428 0.9429 0.9431
1813.000000 0.9432 0.9432 0.9433 0.9434 0.9435
1818.000000 0.9435 0.9436 0.9437 0.9438 0.9439
1823.000000 0.9439 0.9440 0.9470 0.9440 0.9439
1828.000000 0.9439 0.9438 0.9437 0.9437 0.9436
1833.000000 0.9435 0.9435 0.9434 0.9433 0.9432
1838.000000 0.9430 0.9428 0.9427 0.9425 0.9423
1843.000000 0.9422 0.9420 0.9418 0.9416 0.9415
1848.000000 0.9413 0.9411 0.9410 0.9408 0.9406
1853.000000 0.9405 0.9403 0.9402 0.9403 0.9403
1858.000000 0.9404 0.9405 0.9405 0.9406 0.9406
1863.000000 0.9407 0.9408 0.9408 0.9409 0.9409
1868.000000 0.9410 0.9411 0.9411 0.9412 0.9412
1873.000000 0.9413 0.9412 0.9410 0.9408 0.9406
1878.000000 0.9405 0.9396 0.9386 0.9377 0.9368
1883.000000 0.9358 0.9349 0.9335 0.9319 0.9303
1888.000000 0.9287 0.9271 0.9245 0.9217 0.9188
1893.000000 0.9147 0.9141 0.9141 0.9141 0.9141
1898.000000 0.9132 0.9144 0.9148 0.9151 0.9156
1903.000000 0.9161 0.9166 0.9185 0.9204 0.9224
1908.000000 0.9243 0.9262 0.9281 0.9300 0.9319
1913.000000 0.9333 0.9337 0.9342 0.9347 0.9352
1918.000000 0.9357 0.9362 0.9363 0.9364 0.9365
1923.000000 0.9367 0.9371 0.9376 0.9381 0.9385
1928.000000 0.9390 0.9394 0.9399 0.9404 0.9409
1933.000000 0.9414 0.9419 0.9425 0.9430 0.9435
1938.000000 0.9441 0.9446 0.9451 0.9457 0.9462
1943.000000 0.9467 0.9473 0.9479 0.9487 0.9496
1948.000000 0.9505 0.9501 0.9496 0.9492 0.9486
1953.000000 0.9475 0.9464 0.9453 0.9442 0.9456
1958.000000 0.9476 0.9494 0.9512 0.9522 0.9523
1963.000000 0.9525 0.9523 0.9522 0.9520 0.9519
1968.000000 0.9517 0.9516 0.9515 0.9514 0.9513
1973.000000 0.9513 0.9512 0.9511 0.9510 0.9509
1978.000000 0.9507 0.9504 0.9500 0.9496 0.9492
1983.000000 0.9489 0.9485 0.9481 0.9478 0.9474
1988.000000 0.9470 0.9467 0.9463 0.9459 0.9456
1993.000000 0.9455 0.9453 0.9452 0.9451 0.9449
1998.000000 0.9448 0.9479 0.9562 0.9598 0.9635
2003.000000 0.9636 0.9637 0.9632 0.9628 0.9623
2008.000000 0.9618 0.9611 0.9604 0.9591 0.9579
2013.000000 0.9566 0.9553 0.9535 0.9517 0.9499
2018.000000 0.9481 0.9463 0.9446 0.9360 0.9274
2023.000000 0.9194 0.9114 0.9111 0.9108 0.9106
2028.000000 0.9105 0.9105 0.9125 0.9107 0.9110
2033.000000 0.9138 0.9166 0.9194 0.9223 0.9251
2038.000000 0.9280 0.9308 0.9336 0.9364 0.9393
2043.000000 0.9418 0.9443 0.9456 0.9469 0.9478
2048.000000 0.9487 0.9494 0.9501 0.9508 0.9515
2053.000000 0.9522 0.9530 0.9537 0.9544 0.9550
2058.000000 0.9556 0.9561 0.9567 0.9572 0.9577
2063.000000 0.9582 0.9588 0.9593 0.9598 0.9601
2068.000000 0.9605 0.9608 0.9612 0.9616 0.9620
2073.000000 0.9623 0.9627 0.9630 0.9634 0.9637
2078.000000 0.9641 0.9643 0.9646 0.9648 0.9651
2083.000000 0.9653 0.9656 0.9657 0.9658 0.9658
2088.000000 0.9658 0.9658 0.9658 0.9658 0.9658
2093.000000 0.9658 0.9659 0.9658 0.9657 0.9656
2098.000000 0.9655 0.9654 0.9653 0.9652 0.9651
2103.000000 0.9650 0.9650 0.9648 0.9647 0.9645
2108.000000 0.9644 0.9640 0.9636 0.9631 0.9626
2113.000000 0.9620 0.9615 0.9610 0.9605 0.9600
2118.000000 0.9595 0.9589 0.9584 0.9577 0.9571
2123.000000 0.9563 0.9556 0.9548 0.9540 0.9532
2128.000000 0.9525 0.9516 0.9508 0.9499 0.9491
2133.000000 0.9482 0.9473 0.9464 0.9456 0.9447
2138.000000 0.9439 0.9430 0.9422 0.9412 0.9403
2143.000000 0.9392 0.9381 0.9370 0.9360 0.9349
2148.000000 0.9339 0.9328 0.9317 0.9306 0.9296
2153.000000 0.9285 0.9275 0.9266 0.9257 0.9249
2158.000000 0.9241 0.9233 0.9225 0.9217 0.9209
2163.000000 0.9201 0.9193 0.9188 0.9183 0.9185
2168.000000 0.9187 0.9192 0.9197 0.9203 0.9210
2173.000000 0.9217 0.9225 0.9232 0.9240 0.9248
2178.000000 0.9256 0.9263 0.9271 0.9277 0.9283
2183.000000 0.9288 0.9293 0.9298 0.9303 0.9299
2188.000000 0.9295 0.9291 0.9287 0.9283 0.9279
2193.000000 0.9275 0.9271 0.9267 0.9263 0.9259
2198.000000 0.9255 0.9251 0.9247 0.9243 0.9240
2203.000000 0.9236 0.9232 0.9228 0.9225 0.9222
2208.000000 0.9220 0.9219 0.9219 0.9218 0.9218
2213.000000 0.9217 0.9217 0.9216 0.9216 0.9215
2218.000000 0.9215 0.9218 0.9221 0.9229 0.9238
2223.000000 0.9244 0.9251 0.9256 0.9262 0.9267
2228.000000 0.9272 0.9273 0.9275 0.9274 0.9274
2233.000000 0.9273 0.9273 0.9272 0.9271 0.9270
2238.000000 0.9270 0.9269 0.9268 0.9267 0.9266
2243.000000 0.9265 0.9265 0.9263 0.9262 0.9260
2248.000000 0.9259 0.9257 0.9256 0.9254 0.9253
2253.000000 0.9251 0.9250 0.9247 0.9244 0.9240
2258.000000 0.9236 0.9232 0.9228 0.9224 0.9220
2263.000000 0.9216 0.9212 0.9208 0.9204 0.9200
2268.000000 0.9196 0.9192 0.9188 0.9179 0.9171
2273.000000 0.9162 0.9154 0.9145 0.9137 0.9129
2278.000000 0.9121 0.9112 0.9104 0.9095 0.9087
2283.000000 0.9078 0.9070 0.9066 0.9062 0.9060
2288.000000 0.9058 0.9056 0.9054 0.9052 0.9050
2293.000000 0.9050 0.9051 0.9052 0.9054 0.9056
2298.000000 0.9058 0.9054 0.9051 0.9045 0.9039
2303.000000 0.9033 0.9027 0.9021 0.9015 0.9009
2308.000000 0.9003 0.8994 0.8985 0.8976 0.8968
2313.000000 0.8959 0.8950 0.8941 0.8932 0.8924
2318.000000 0.8916 0.8907 0.8899 0.8891 0.8883
2323.000000 0.8879 0.8876 0.8876 0.8876 0.8875
2328.000000 0.8875 0.8877 0.8879 0.8882 0.8886
2333.000000 0.8889 0.8892 0.8895 0.8899 0.8902
2338.000000 0.8905 0.8908 0.8912 0.8912 0.8912
2343.000000 0.8912 0.8913 0.8913 0.8913 0.8913
2348.000000 0.8913 0.8913 0.8913 0.8912 0.8911
2353.000000 0.8909 0.8908 0.8906 0.8905 0.8904
2358.000000 0.8903 0.8901 0.8900 0.8898 0.8897
2363.000000 0.8896 0.8895 0.8893 0.8892 0.8891
2368.000000 0.8891 0.8890 0.8890 0.8889 0.8889
2373.000000 0.8888 0.8888 0.8886 0.8885 0.8881
2378.000000 0.8878 0.8874 0.8870 0.8866 0.8863
2383.000000 0.8859 0.8856 0.8852 0.8849 0.8845
2388.000000 0.8841 0.8833 0.8825 0.8803 0.8781
2393.000000 0.8756 0.8732 0.8706 0.8681 0.8653
2398.000000 0.8625 0.8595 0.8566 0.8562 0.8559
2403.000000 0.8557 0.8556 0.8558 0.8530 0.8567
2408.000000 0.8574 0.8593 0.8612 0.8660 0.8709
2413.000000 0.8750 0.8792 0.8833 0.8874 0.8915
2418.000000 0.8956 0.8991 0.9026 0.9048 0.9070
2423.000000 0.9085 0.9100 0.9111 0.9122 0.9127
2428.000000 0.9132 0.9130 0.9128 0.9124 0.9120
2433.000000 0.9115 0.9111 0.9105 0.9100 0.9094
2438.000000 0.9088 0.9082 0.9077 0.9072 0.9067
2443.000000 0.9062 0.9057 0.9052 0.9047 0.9042
2448.000000 0.9038 0.9033 0.9029 0.9027 0.9025
2453.000000 0.9025 0.9025 0.9025 0.9025 0.9025
2458.000000 0.9025 0.9025 0.9025 0.9025 0.9025
2463.000000 0.9024 0.9024 0.9024 0.9024 0.9024
2468.000000 0.9025 0.9027 0.9030 0.9033 0.9025
2473.000000 0.9039 0.9043 0.9046 0.9050 0.9053
2478.000000 0.9057 0.9060 0.9064 0.9067 0.9070
2483.000000 0.9073 0.9077 0.9080 0.9084 0.9087
2488.000000 0.9091 0.9094 0.9098 0.9101 0.9105
2493.000000 0.9106 0.9108 0.9109 0.9111 0.9112
2498.000000 0.9113 0.9114 0.9116 0.9116 0.9117
2503.000000 0.9114 0.9112 0.9110 0.9108 0.9106
2508.000000 0.9104 0.9101 0.9099 0.9094 0.9089
2513.000000 0.9084 0.9079 0.9073 0.9068 0.9064
2518.000000 0.9060 0.9056 0.9053 0.9049 0.9046
2523.000000 0.9042 0.9038 0.9034 0.9031 0.9027
2528.000000 0.9023 0.9018 0.9014 0.9010 0.9006
2533.000000 0.9002 0.8998 0.8993 0.8989 0.8985
2538.000000 0.8981 0.8976 0.8972 0.8968 0.8964
2543.000000 0.8960 0.8956 0.8949 0.8942 0.8935
2548.000000 0.8928 0.8921 0.8914 0.8906 0.8899
2553.000000 0.8885 0.8871 0.8855 0.8839 0.8814
2558.000000 0.8789 0.8735 0.8681 0.8638 0.8596
2563.000000 0.8553 0.8510 0.8460 0.8411 0.8387
2568.000000 0.8364 0.8347 0.8331 0.8321 0.8312
2573.000000 0.8303 0.8294 0.8276 0.8258 0.8236
2578.000000 0.8215 0.8171 0.8127 0.8090 0.8054
2583.000000 0.8021 0.7989 0.7936 0.7883 0.7814
2588.000000 0.7745 0.7688 0.7631 0.7576 0.7521
2593.000000 0.7483 0.7446 0.7420 0.7394 0.7368
2598.000000 0.7343 0.7317 0.7292 0.7267 0.7243
2603.000000 0.7219 0.7195 0.7171 0.7148 0.7124
2608.000000 0.7100 0.7077 0.7055 0.7039 0.7023
2613.000000 0.7007 0.6991 0.6974 0.6958 0.6947
2618.000000 0.6937 0.6931 0.6925 0.6919 0.6870
2623.000000 0.6943 0.6973 0.7012 0.7052 0.7091
2628.000000 0.7131 0.7170 0.7209 0.7248 0.7288
2633.000000 0.7327 0.7367 0.7406 0.7446 0.7468
2638.000000 0.7491 0.7493 0.7571 0.7491 0.7487
2643.000000 0.7483 0.7479 0.7464 0.7450 0.7387
2648.000000 0.7325 0.7262 0.7200 0.7138 0.7076
2653.000000 0.7013 0.6951 0.6888 0.6826 0.6764
2658.000000 0.6702 0.6639 0.6577 0.6514 0.6452
2663.000000 0.6390 0.6328 0.6308 0.6288 0.6284
2668.000000 0.6281 0.6285 0.6301 0.6302 0.6316
2673.000000 0.6383 0.6451 0.6518 0.6586 0.6653
2678.000000 0.6721 0.6788 0.6856 0.6923 0.6991
2683.000000 0.7017 0.7043 0.7041 0.7090 0.7039
2688.000000 0.7038 0.7033 0.7029 0.7023 0.7018
2693.000000 0.7012 0.7006 0.6991 0.6977 0.6954
2698.000000 0.6931 0.6907 0.6883 0.6857 0.6831
2703.000000 0.6801 0.6772 0.6744 0.6716 0.6694
2708.000000 0.6673 0.6651 0.6630 0.6608 0.6587
2713.000000 0.6559 0.6532 0.6505 0.6478 0.6379
2718.000000 0.6280 0.6144 0.6009 0.5874 0.5739
2723.000000 0.5603 0.5468 0.5333 0.5198 0.5062
2728.000000 0.4927 0.4792 0.4657 0.4569 0.4482
2733.000000 0.4458 0.4434 0.4422 0.4410 0.4410
2738.000000 0.4410 0.4412 0.4428 0.4530 0.4646
2743.000000 0.4788 0.4931 0.5073 0.5216 0.5358
2748.000000 0.5501 0.5643 0.5786 0.5881 0.5976
2753.000000 0.5977 0.5978 0.5978 0.6031 0.5976
2758.000000 0.5974 0.5971 0.5969 0.5959 0.5949
2763.000000 0.5930 0.5912 0.5880 0.5848 0.5787
2768.000000 0.5727 0.5685 0.5644 0.5613 0.5583
2773.000000 0.5553 0.5523 0.5463 0.5403 0.5326
2778.000000 0.5249 0.5172 0.5095 0.5017 0.4940
2783.000000 0.4863 0.4786 0.4709 0.4632 0.4555
2788.000000 0.4478 0.4401 0.4324 0.4247 0.4170
2793.000000 0.4092 0.4015 0.3938 0.3861 0.3784
2798.000000 0.3707 0.3566 0.3426 0.3375 0.3325
2803.000000 0.3275 0.3225 0.3175 0.3125 0.3075
2808.000000 0.3025 0.2975 0.2926 0.2876 0.2826
2813.000000 0.2736 0.2646 0.2550 0.2455 0.2366
2818.000000 0.2277 0.2221 0.2166 0.2110 0.2055
2823.000000 0.2017 0.1980 0.1945 0.1910 0.1875
2828.000000 0.1840 0.1785 0.1731 0.1661 0.1591
2833.000000 0.1514 0.1438 0.1321 0.1205 0.1087
2838.000000 0.0970 0.0820 0.0670 0.0546 0.0422
2843.000000 0.0331 0.0241 0.0169 0.0097 0.0073
2848.000000 0.0050 0.0050 0.0050 0.0050 0.0050
2853.000000 0.0050 0.0051 0.0051 0.0051 0.0051
2858.000000 0.0051 0.0051 0.0052 0.0052 0.0052
2863.000000 0.0052 0.0052 0.0052 0.0053 0.0053
2868.000000 0.0053 0.0053 0.0053 0.0053 0.0054
2873.000000 0.0054 0.0054 0.0054 0.0054 0.0054
2878.000000 0.0055 0.0055 0.0055 0.0055 0.0055
2883.000000 0.0055 0.0056 0.0056 0.0056 0.0056
2888.000000 0.0056 0.0056 0.0057 0.0057 0.0057
2893.000000 0.0057 0.0057 0.0057 0.0058 0.0058
2898.000000 0.0058 0.0058 0.0058 0.0058 0.0059
2903.000000 0.0059 0.0059 0.0059 0.0059 0.0059
2908.000000 0.0060 0.0060 0.0060 0.0060 0.0060
2913.000000 0.0060 0.0061 0.0061 0.0061 0.0061
2918.000000 0.0061 0.0061 0.0062 0.0062 0.0062
2923.000000 0.0062 0.0062 0.0062 0.0033 0.0063
2928.000000 0.0063 0.0063 0.0063 0.0063 0.0064
2933.000000 0.0064 0.0064 0.0064 0.0064 0.0064
2938.000000 0.0065 0.0065 0.0065 0.0065 0.0065
2943.000000 0.0065 0.0066 0.0066 0.0066 0.0066
2948.000000 0.0066 0.0066 0.0067 0.0067 0.0067
2953.000000 0.0067 0.0067 0.0067 0.0068 0.0068
2958.000000 0.0068 0.0068 0.0068 0.0068 0.0069
2963.000000 0.0069 0.0069 0.0069 0.0069 0.0069
2968.000000 0.0070 0.0070 0.0070 0.0070 0.0070
2973.000000 0.0070 0.0071 0.0071 0.0071 0.0071
2978.000000 0.0072 0.0072 0.0072 0.0072 0.0072
2983.000000 0.0072 0.0073 0.0073 0.0073 0.0073
2988.000000 0.0073 0.0073 0.0074 0.0074 0.0074
2993.000000 0.0074 0.0074 0.0074 0.0075 0.0075
2998.000000 0.0075 0.0075 0.0075 0.0109 0.0144
3003.000000 0.0176 0.0209 0.0234 0.0259 0.0295
3008.000000 0.0332 0.0411 0.0490 0.0716 0.0942
3013.000000 0.1021 0.1100 0.1244 0.1388 0.1496
3018.000000 0.1605 0.1681 0.1758 0.1869 0.1981
3023.000000 0.2194 0.2408 0.2507 0.2607 0.2666
3028.000000 0.2725 0.2789 0.2853 0.2917 0.2981
3033.000000 0.3044 0.3108 0.3172 0.3236 0.3300
3038.000000 0.3364 0.3430 0.3496 0.3609 0.3722
3043.000000 0.3810 0.3899 0.3963 0.4027 0.4091
3048.000000 0.4155 0.4220 0.4286 0.4352 0.4419
3053.000000 0.4489 0.4559 0.4634 0.4709 0.4774
3058.000000 0.4839 0.4894 0.4950 0.5005 0.5060
3063.000000 0.5117 0.5175 0.5252 0.5330 0.5408
3068.000000 0.5486 0.5521 0.5556 0.5589 0.5623
3073.000000 0.5656 0.5689 0.5722 0.5756 0.5799
3078.000000 0.5842 0.5898 0.5955 0.6008 0.6062
3083.000000 0.6096 0.6131 0.6166 0.6201 0.6241
3088.000000 0.6281 0.6327 0.6373 0.6409 0.6445
3093.000000 0.6467 0.6490 0.6512 0.6534 0.6556
3098.000000 0.6579 0.6601 0.6623 0.6645 0.6668
3103.000000 0.6690 0.6713 0.6737 0.6762 0.6786
3108.000000 0.6810 0.6834 0.6859 0.6883 0.6908
3113.000000 0.6932 0.6957 0.6982 0.7007 0.7029
3118.000000 0.7052 0.7070 0.7088 0.7105 0.7123
3123.000000 0.7141 0.7159 0.7176 0.7193 0.7208
3128.000000 0.7223 0.7233 0.7244 0.7250 0.7256
3133.000000 0.7261 0.7267 0.7270 0.7273 0.7273
3138.000000 0.7279 0.7275 0.7276 0.7275 0.7274
3143.000000 0.7272 0.7271 0.7268 0.7265 0.7260
3148.000000 0.7255 0.7250 0.7246 0.7236 0.7226
3153.000000 0.7215 0.7204 0.7197 0.7191 0.7184
3158.000000 0.7178 0.7172 0.7166 0.7159 0.7153
3163.000000 0.7147 0.7141 0.7135 0.7129 0.7122
3168.000000 0.7116 0.7109 0.7103 0.7097 0.7091
3173.000000 0.7084 0.7078 0.7072 0.7066 0.7061
3178.000000 0.7056 0.7051 0.7046 0.7041 0.7036
3183.000000 0.7031 0.7027 0.7025 0.7023 0.7022
3188.000000 0.7022 0.7021 0.7020 0.7019 0.7008
3193.000000 0.7019 0.7020 0.7025 0.7030 0.7036
3198.000000 0.7043 0.7050 0.7058 0.7065 0.7073
3203.000000 0.7083 0.7094 0.7145 0.7196 0.7234
3208.000000 0.7272 0.7300 0.7329 0.7368 0.7407
3213.000000 0.7442 0.7477 0.7508 0.7540 0.7572
3218.000000 0.7604 0.7638 0.7673 0.7708 0.7743
3223.000000 0.7780 0.7818 0.7861 0.7905 0.7949
3228.000000 0.7994 0.8041 0.8088 0.8133 0.8179
3233.000000 0.8219 0.8259 0.8280 0.8301 0.8316
3238.000000 0.8331 0.8346 0.8362 0.8377 0.8392
3243.000000 0.8407 0.8423 0.8438 0.8453 0.8468
3248.000000 0.8484 0.8499 0.8514 0.8529 0.8544
3253.000000 0.8557 0.8570 0.8583 0.8597 0.8610
3258.000000 0.8624 0.8637 0.8650 0.8663 0.8677
3263.000000 0.8690 0.8704 0.8716 0.8729 0.8741
3268.000000 0.8754 0.8766 0.8779 0.8791 0.8803
3273.000000 0.8815 0.8828 0.8838 0.8848 0.8857
3278.000000 0.8866 0.8874 0.8883 0.8892 0.8901
3283.000000 0.8909 0.8918 0.8927 0.8936 0.8942
3288.000000 0.8948 0.8952 0.8957 0.8962 0.8972
3293.000000 0.8970 0.8973 0.8975 0.8977 0.8978
3298.000000 0.8979 0.8976 0.8974 0.8972 0.8970
3303.000000 0.8967 0.8965 0.8963 0.8961 0.8958
3308.000000 0.8956 0.8955 0.8954 0.8954 0.8955
3313.000000 0.8955 0.8955 0.8959 0.8964 0.8968
3318.000000 0.8972 0.8976 0.8980 0.8983 0.8987
3323.000000 0.8990 0.8994 0.8997 0.9000 0.9003
3328.000000 0.9007 0.9010 0.9014 0.9016 0.9019
3333.000000 0.9021 0.9023 0.9025 0.9028 0.9030
3338.000000 0.9033 0.9035 0.9037 0.9037 0.9038
3343.000000 0.9038 0.9038 0.9038 0.9038 0.9038
3348.000000 0.9038 0.9038 0.9039 0.9038 0.9037
3353.000000 0.9034 0.9031 0.9027 0.9024 0.9021
3358.000000 0.9018 0.9015 0.9012 0.9003 0.8994
3363.000000 0.8982 0.8970 0.8953 0.8937 0.8904
3368.000000 0.8872 0.8843 0.8814 0.8795 0.8777
3373.000000 0.8768 0.8759 0.8754 0.8749 0.8751
3378.000000 0.8754 0.8758 0.8738 0.8766 0.8771
3383.000000 0.8782 0.8793 0.8816 0.8840 0.8872
3388.000000 0.8905 0.8925 0.8946 0.8961 0.8977
3393.000000 0.8991 0.9005 0.9017 0.9030 0.9037
3398.000000 0.9044 0.9051 0.9059 0.9063 0.9067
3403.000000 0.9071 0.9076 0.9080 0.9084 0.9087
3408.000000 0.9090 0.9093 0.9096 0.9099 0.9102
3413.000000 0.9104 0.9107 0.9110 0.9113 0.9115
3418.000000 0.9117 0.9118 0.9120 0.9121 0.9122
3423.000000 0.9123 0.9125 0.9126 0.9127 0.9128
3428.000000 0.9129 0.9129 0.9129 0.9125 0.9121
3433.000000 0.9117 0.9113 0.9109 0.9105 0.9102
3438.000000 0.9099 0.9101 0.9104 0.9114 0.9125
3443.000000 0.9136 0.9147 0.9159 0.9172 0.9185
3448.000000 0.9199 0.9210 0.9221 0.9228 0.9236
3453.000000 0.9239 0.9242 0.9245 0.9248 0.9250
3458.000000 0.9253 0.9256 0.9259 0.9262 0.9265
3463.000000 0.9268 0.9271 0.9273 0.9276 0.9277
3468.000000 0.9279 0.9280 0.9281 0.9282 0.9284
3473.000000 0.9285 0.9287 0.9288 0.9290 0.9291
3478.000000 0.9292 0.9293 0.9295 0.9296 0.9297
3483.000000 0.9298 0.9300 0.9301 0.9302 0.9303
3488.000000 0.9305 0.9306 0.9307 0.9307 0.9308
3493.000000 0.9308 0.9309 0.9309 0.9310 0.9310
3498.000000 0.9311 0.9311 0.9312 0.9310 0.9308
3503.000000 0.9305 0.9303 0.9300 0.9298 0.9295
3508.000000 0.9293 0.9290 0.9288 0.9286 0.9285
3513.000000 0.9283 0.9282 0.9280 0.9279 0.9277
3518.000000 0.9265 0.9273 0.9272 0.9272 0.9272
3523.000000 0.9272 0.9273 0.9273 0.9274 0.9274
3528.000000 0.9275 0.9275 0.9275 0.9275 0.9276
3533.000000 0.9277 0.9278 0.9279 0.9281 0.9282
3538.000000 0.9283 0.9284 0.9286 0.9287 0.9289
3543.000000 0.9290 0.9291 0.9290 0.9290 0.9290
3548.000000 0.9290 0.9289 0.9289 0.9288 0.9288
3553.000000 0.9287 0.9287 0.9287 0.9287 0.9286
3558.000000 0.9286 0.9284 0.9283 0.9282 0.9281
3563.000000 0.9280 0.9279 0.9277 0.9276 0.9275
3568.000000 0.9274 0.9273 0.9272 0.9270 0.9269
3573.000000 0.9268 0.9267 0.9265 0.9263 0.9261
3578.000000 0.9259 0.9257 0.9256 0.9254 0.9252
3583.000000 0.9250 0.9249 0.9247 0.9245 0.9241
3588.000000 0.9238 0.9232 0.9226 0.9220 0.9215
3593.000000 0.9209 0.9203 0.9197 0.9192 0.9186
3598.000000 0.9181 0.9175 0.9169 0.9163 0.9157
3603.000000 0.9150 0.9144 0.9137 0.9130 0.9123
3608.000000 0.9117 0.9110 0.9103 0.9096 0.9090
3613.000000 0.9083 0.9076 0.9069 0.9062 0.9055
3618.000000 0.9049 0.9041 0.9034 0.9027 0.9020
3623.000000 0.9013 0.9006 0.8999 0.8992 0.8984
3628.000000 0.8977 0.8970 0.8963 0.8956 0.8950
3633.000000 0.8944 0.8939 0.8933 0.8927 0.8921
3638.000000 0.8916 0.8910 0.8904 0.8898 0.8893
3643.000000 0.8889 0.8886 0.8885 0.8885 0.8884
3648.000000 0.8884 0.8883 0.8883 0.8882 0.8881
3653.000000 0.8882 0.8884 0.8885 0.8886 0.8887
3658.000000 0.8889 0.8890 0.8891 0.8892 0.8893
3663.000000 0.8894 0.8896 0.8897 0.8898 0.8899
3668.000000 0.8900 0.8901 0.8902 0.8903 0.8904
3673.000000 0.8904 0.8905 0.8906 0.8907 0.8905
3678.000000 0.8904 0.8901 0.8899 0.8896 0.8894
3683.000000 0.8891 0.8888 0.8884 0.8880 0.8876
3688.000000 0.8872 0.8868 0.8864 0.8861 0.8858
3693.000000 0.8855 0.8853 0.8851 0.8849 0.8846
3698.000000 0.8844 0.8849 0.8854 0.8859 0.8864
3703.000000 0.8869 0.8875 0.8880 0.8886 0.8891
3708.000000 0.8897 0.8903 0.8910 0.8916 0.8923
3713.000000 0.8928 0.8934 0.8939 0.8944 0.8948
3718.000000 0.8953 0.8955 0.8982 0.8960 0.8963
3723.000000 0.8963 0.8963 0.8957 0.8951 0.8944
3728.000000 0.8938 0.8930 0.8923 0.8915 0.8907
3733.000000 0.8898 0.8889 0.8880 0.8871 0.8860
3738.000000 0.8850 0.8837 0.8825 0.8819 0.8813
3743.000000 0.8809 0.8805 0.8801 0.8798 0.8800
3748.000000 0.8802 0.8808 0.8815 0.8825 0.8836
3753.000000 0.8847 0.8858 0.8865 0.8873 0.8875
3758.000000 0.8877 0.8879 0.8881 0.8875 0.8869
3763.000000 0.8863 0.8857 0.8851 0.8845 0.8837
3768.000000 0.8829 0.8819 0.8809 0.8793 0.8778
3773.000000 0.8758 0.8739 0.8722 0.8706 0.8695
3778.000000 0.8685 0.8680 0.8676 0.8672 0.8668
3783.000000 0.8670 0.8673 0.8677 0.8681 0.8685
3788.000000 0.8690 0.8694 0.8699 0.8706 0.8714
3793.000000 0.8722 0.8731 0.8739 0.8747 0.8755
3798.000000 0.8763 0.8770 0.8778 0.8785 0.8793
3803.000000 0.8801 0.8809 0.8816 0.8824 0.8831
3808.000000 0.8839 0.8846 0.8854 0.8861 0.8869
3813.000000 0.8876 0.8884 0.8891 0.8899 0.8906
3818.000000 0.8913 0.8919 0.8926 0.8933 0.8940
3823.000000 0.8946 0.8953 0.8960 0.8967 0.8972
3828.000000 0.8978 0.8981 0.8985 0.8988 0.8991
3833.000000 0.8990 0.9010 0.8988 0.8987 0.8984
3838.000000 0.8981 0.8977 0.8973 0.8968 0.8964
3843.000000 0.8960 0.8956 0.8952 0.8949 0.8945
3848.000000 0.8942 0.8938 0.8935 0.8930 0.8926
3853.000000 0.8921 0.8916 0.8911 0.8907 0.8902
3858.000000 0.8897 0.8887 0.8877 0.8867 0.8857
3863.000000 0.8847 0.8837 0.8827 0.8817 0.8806
3868.000000 0.8796 0.8784 0.8773 0.8762 0.8751
3873.000000 0.8740 0.8729 0.8718 0.8707 0.8695
3878.000000 0.8684 0.8673 0.8662 0.8652 0.8643
3883.000000 0.8636 0.8630 0.8624 0.8619 0.8618
3888.000000 0.8617 0.8616 0.8616 0.8615 0.8614
3893.000000 0.8613 0.8612 0.8611 0.8611 0.8612
3898.000000 0.8608 0.8614 0.8615 0.8615 0.8616
3903.000000 0.8617 0.8618 0.8619 0.8620 0.8621
3908.000000 0.8622 0.8629 0.8636 0.8644 0.8653
3913.000000 0.8661 0.8670 0.8679 0.8689 0.8699
3918.000000 0.8709 0.8719 0.8730 0.8740 0.8750
3923.000000 0.8758 0.8767 0.8774 0.8781 0.8788
3928.000000 0.8795 0.8802 0.8810 0.8817 0.8824
3933.000000 0.8831 0.8838 0.8841 0.8845 0.8848
3938.000000 0.8852 0.8855 0.8859 0.8862 0.8866
3943.000000 0.8868 0.8871 0.8869 0.8868 0.8867
3948.000000 0.8866 0.8864 0.8863 0.8862 0.8856
3953.000000 0.8858 0.8855 0.8851 0.8847 0.8842
3958.000000 0.8838 0.8833 0.8829 0.8824 0.8820
3963.000000 0.8816 0.8812 0.8807 0.8803 0.8798
3968.000000 0.8793 0.8787 0.8782 0.8776 0.8770
3973.000000 0.8764 0.8759 0.8753 0.8747 0.8741
3978.000000 0.8736 0.8730 0.8724 0.8719 0.8715
3983.000000 0.8712 0.8709 0.8706 0.8703 0.8700
3988.000000 0.8697 0.8693 0.8690 0.8687 0.8684
3993.000000 0.8679 0.8675 0.8664 0.8654 0.8643
3998.000000 0.8633 0.8616 0.8600 0.8577 0.8555
4003.000000 0.8536 0.8518 0.8500 0.8482 0.8463
4008.000000 0.8445 0.8426 0.8407 0.8385 0.8364
4013.000000 0.8342 0.8321 0.8288 0.8256 0.8241
4018.000000 0.8226
##END=
