##TITLE=TETRADECANE
##JCAMP-DX=4.24
##DATA TYPE=INFRARED SPECTRUM
##CLASS=COBLENTZ II
##ORIGIN=STANDARD OIL OF OHIO
##OWNER=COBLENTZ SOCIETY
Collection (C) 2018 copyright by the U.S. Secretary of Commerce
on behalf of the United States of America. All rights reserved.
##DATE=1976/12/08
##CAS REGISTRY NO=629-59-4
##MOLFORM=C14 H30
##SOURCE REFERENCE=COBLENTZ NO. 10120
##$NIST SOURCE=COBLENTZ
##$NIST IMAGE=cob10120
##SPECTROMETER/DATA SYSTEM=PERKIN-ELMER 180 (GRATING)
##INSTRUMENT PARAMETERS=GRATING CHANGES AT 2000, 1000, 500, 250 CM^-^1
##STATE=LIQUID (NEAT)
##PATH LENGTH=0.0032 CM KBr CELL
$$ SEE SPECTRUM NO. 7598 FOR "SOLUTION" STATE
##SAMPLING PROCEDURE=TRANSMISSION
##RESOLUTION=4
##DATA PROCESSING=DIGITIZED BY NIST FROM HARD COPY (FROM TWO SEGMENTS)
##XUNITS=1/CM
##YUNITS=TRANSMITTANCE
##XFACTOR=1.000000
##YFACTOR=1
##DELTAX=1.038961
##FIRSTX=295.065
##LASTX=3997.92
##FIRSTY=0.069
##MAXX=3997.92
##MINX=295.065
##MAXY=0.911
##MINY=0
##NPOINTS=3565
##XYDATA=(X++(Y..Y))
295.065000 0.0690 0.0750 0.0840 0.0870 0.0910
300.259807 0.0970 0.1020 0.1090 0.1120 0.1190
305.454614 0.1250 0.1300 0.1340 0.1390 0.1440
310.649420 0.1490 0.1510 0.1540 0.1580 0.1590
315.844227 0.1650 0.1700 0.1780 0.1790 0.1870
321.039034 0.1950 0.2080 0.2100 0.2170 0.2240
326.233841 0.2300 0.2370 0.2450 0.2510 0.2580
331.428648 0.2640 0.2720 0.2790 0.2850 0.2920
336.623454 0.2990 0.3190 0.3250 0.3410 0.3500
341.818261 0.3570 0.3640 0.3700 0.3790 0.3870
347.013068 0.3940 0.4000 0.4090 0.4180 0.4250
352.207875 0.4350 0.4400 0.4470 0.4520 0.4610
357.402682 0.4670 0.4710 0.4790 0.4880 0.4940
362.597489 0.5010 0.5070 0.5100 0.5180 0.5210
367.792295 0.5390 0.5430 0.5480 0.5560 0.5650
372.987102 0.5690 0.5720 0.5780 0.5840 0.5890
378.181909 0.5980 0.5990 0.6040 0.6100 0.6150
383.376716 0.6190 0.6230 0.6280 0.6320 0.6360
388.571523 0.6390 0.6420 0.6470 0.6530 0.6580
393.766329 0.6620 0.6680 0.6700 0.6780 0.6860
398.961136 0.6940 0.7010 0.7090 0.7130 0.7150
404.155943 0.7190 0.7220 0.7260 0.7320 0.7350
409.350750 0.7390 0.7410 0.7450 0.7500 0.7530
414.545557 0.7580 0.7610 0.7620 0.7630 0.7640
419.740363 0.7680 0.7720 0.7780 0.7800 0.7840
424.935170 0.7870 0.7880 0.7900 0.7910 0.7910
430.129977 0.7920 0.7970 0.7990 0.7990 0.8020
435.324784 0.8030 0.8060 0.8110 0.8130 0.8130
440.519591 0.8150 0.8160 0.8170 0.8170 0.8180
445.714397 0.8200 0.8210 0.8220 0.8230 0.8250
450.909204 0.8260 0.8290 0.8300 0.8300 0.8320
456.104011 0.8330 0.8340 0.8350 0.8360 0.8390
461.298818 0.8410 0.8420 0.8430 0.8440 0.8450
466.493625 0.8460 0.8470 0.8490 0.8500 0.8510
471.688431 0.8520 0.8520 0.8530 0.8530 0.8540
476.883238 0.8540 0.8550 0.8550 0.8550 0.8560
482.078045 0.8560 0.8560 0.8570 0.8570 0.8570
487.272852 0.8570 0.8580 0.8590 0.8590 0.8590
492.467659 0.8600 0.8600 0.8620 0.8770 0.8930
497.662466 0.8940 0.8940 0.8950 0.8960 0.8970
502.857272 0.8980 0.8980 0.8990 0.8990 0.9000
508.052079 0.9000 0.9000 0.9010 0.9010 0.9010
513.246886 0.9010 0.9010 0.9010 0.9020 0.9020
518.441693 0.9020 0.9020 0.9020 0.9020 0.9020
523.636500 0.9020 0.9030 0.9040 0.9040 0.9050
528.831306 0.9050 0.9060 0.9060 0.9060 0.9060
534.026113 0.9050 0.9050 0.9050 0.9060 0.9060
539.220920 0.9070 0.9070 0.9090 0.9100 0.9100
544.415727 0.9100 0.9090 0.9090 0.9090 0.9090
549.610534 0.9090 0.9110 0.9110 0.9110 0.9110
554.805340 0.9100 0.9100 0.9100 0.9100 0.9100
560.000147 0.9100 0.9100 0.9110 0.9110 0.9110
565.194954 0.9110 0.9110 0.9110 0.9110 0.9110
570.389761 0.9110 0.9110 0.9100 0.9090 0.9080
575.584568 0.9070 0.9070 0.9070 0.9070 0.9080
580.779374 0.9080 0.9090 0.9090 0.9080 0.9070
585.974181 0.9060 0.9060 0.9060 0.9070 0.9060
591.168988 0.9060 0.9060 0.9060 0.9060 0.9050
596.363795 0.9050 0.9050 0.9050 0.9050 0.9040
601.558602 0.9040 0.9040 0.9030 0.9030 0.9030
606.753409 0.9020 0.9020 0.9020 0.9020 0.9020
611.948215 0.9020 0.9020 0.9020 0.9020 0.9020
617.143022 0.9020 0.9020 0.9020 0.9020 0.9020
622.337829 0.9020 0.9020 0.9030 0.9040 0.9040
627.532636 0.9020 0.9020 0.9010 0.9010 0.9010
632.727443 0.9010 0.9020 0.9020 0.9020 0.9020
637.922249 0.9020 0.9020 0.9020 0.9020 0.9010
643.117056 0.9010 0.9010 0.9010 0.9000 0.9000
648.311863 0.9000 0.8990 0.8980 0.8960 0.8960
653.506670 0.8960 0.8960 0.8950 0.8940 0.8930
658.701477 0.8930 0.8930 0.8930 0.8930 0.8920
663.896283 0.8900 0.8900 0.8890 0.8890 0.8880
669.091090 0.8870 0.8860 0.8850 0.8830 0.8830
674.285897 0.8830 0.8820 0.8820 0.8820 0.8810
679.480704 0.8800 0.8780 0.8760 0.8740 0.8720
684.675511 0.8710 0.8690 0.8660 0.8620 0.8600
689.870317 0.8590 0.8520 0.8470 0.8430 0.8310
695.065124 0.8210 0.8170 0.8090 0.8050 0.7851
700.259931 0.7640 0.7420 0.7200 0.7000 0.6820
705.454738 0.6740 0.6660 0.6531 0.6132 0.5901
710.649545 0.5610 0.5140 0.4690 0.3891 0.3720
715.844351 0.3720 0.3810 0.3999 0.4309 0.4668
721.039158 0.5060 0.5430 0.5760 0.6000 0.6110
726.233965 0.6299 0.6449 0.6689 0.6799 0.6880
731.428772 0.6950 0.7010 0.7080 0.7140 0.7170
736.623579 0.7210 0.7260 0.7360 0.7489 0.7589
741.818386 0.7630 0.7660 0.7700 0.7710 0.7720
747.013192 0.7720 0.7740 0.7760 0.7760 0.7740
752.207999 0.7730 0.7720 0.7720 0.7730 0.7740
757.402806 0.7760 0.7760 0.7770 0.7790 0.7810
762.597613 0.7820 0.7840 0.7880 0.7900 0.7920
767.792420 0.7940 0.7950 0.7950 0.7990 0.8000
772.987226 0.8000 0.8010 0.8020 0.8030 0.8030
778.182033 0.8040 0.8040 0.8040 0.8050 0.8050
783.376840 0.8060 0.8110 0.8150 0.8210 0.8230
788.571647 0.8290 0.8320 0.8350 0.8400 0.8430
793.766454 0.8430 0.8440 0.8440 0.8440 0.8440
798.961260 0.8440 0.8440 0.8440 0.8450 0.8460
804.156067 0.8460 0.8460 0.8470 0.8500 0.8510
809.350874 0.8510 0.8510 0.8520 0.8520 0.8520
814.545681 0.8510 0.8500 0.8490 0.8490 0.8500
819.740488 0.8500 0.8500 0.8500 0.8500 0.8500
824.935294 0.8480 0.8480 0.8480 0.8470 0.8470
830.130101 0.8470 0.8470 0.8470 0.8470 0.8460
835.324908 0.8460 0.8460 0.8470 0.8470 0.8470
840.519715 0.8470 0.8480 0.8490 0.8490 0.8490
845.714522 0.8490 0.8490 0.8490 0.8490 0.8490
850.909329 0.8490 0.8490 0.8480 0.8480 0.8480
856.104135 0.8480 0.8480 0.8480 0.8480 0.8470
861.298942 0.8450 0.8440 0.8410 0.8400 0.8400
866.493749 0.8390 0.8390 0.8380 0.8380 0.8360
871.688556 0.8350 0.8340 0.8310 0.8300 0.8260
876.883363 0.8230 0.8180 0.8170 0.8140 0.8020
882.078169 0.7960 0.7900 0.7880 0.7880 0.7920
887.272976 0.7950 0.8000 0.8010 0.8040 0.8120
892.467783 0.8150 0.8160 0.8160 0.8170 0.8180
897.662590 0.8210 0.8220 0.8240 0.8240 0.8260
902.857397 0.8270 0.8270 0.8280 0.8300 0.8330
908.052203 0.8340 0.8350 0.8360 0.8390 0.8400
913.247010 0.8400 0.8410 0.8430 0.8440 0.8440
918.441817 0.8440 0.8440 0.8440 0.8430 0.8420
923.636624 0.8420 0.8420 0.8420 0.8420 0.8420
928.831431 0.8420 0.8440 0.8440 0.8430 0.8420
934.026237 0.8420 0.8420 0.8420 0.8430 0.8440
939.221044 0.8450 0.8460 0.8470 0.8460 0.8460
944.415851 0.8450 0.8430 0.8430 0.8430 0.8430
949.610658 0.8420 0.8410 0.8410 0.8410 0.8410
954.805465 0.8420 0.8420 0.8420 0.8430 0.8430
960.000271 0.8420 0.8420 0.8410 0.8410 0.8410
965.195078 0.8410 0.8410 0.8400 0.8400 0.8400
970.389885 0.8400 0.8400 0.8400 0.8400 0.8400
975.584692 0.8400 0.8400 0.8400 0.8400 0.8410
980.779499 0.8420 0.8430 0.8440 0.8440 0.8440
985.974306 0.8440 0.8450 0.8440 0.8440 0.8450
991.169112 0.8460 0.8460 0.8460 0.8460 0.8460
996.363919 0.8460 0.8490 0.8600 0.8680 0.8690
1001.558726 0.8690 0.8690 0.8680 0.8670 0.8650
1006.753533 0.8630 0.8620 0.8610 0.8600 0.8600
1011.948340 0.8600 0.8600 0.8600 0.8600 0.8590
1017.143146 0.8590 0.8580 0.8570 0.8550 0.8550
1022.337953 0.8550 0.8540 0.8540 0.8540 0.8530
1027.532760 0.8530 0.8530 0.8520 0.8510 0.8500
1032.727567 0.8500 0.8490 0.8490 0.8490 0.8490
1037.922374 0.8490 0.8490 0.8490 0.8480 0.8470
1043.117180 0.8470 0.8460 0.8430 0.8430 0.8420
1048.311987 0.8420 0.8410 0.8400 0.8390 0.8390
1053.506794 0.8390 0.8380 0.8360 0.8350 0.8340
1058.701601 0.8330 0.8320 0.8320 0.8310 0.8290
1063.896408 0.8260 0.8250 0.8230 0.8220 0.8200
1069.091214 0.8190 0.8180 0.8130 0.8110 0.8110
1074.286021 0.8120 0.8130 0.8160 0.8190 0.8220
1079.480828 0.8240 0.8260 0.8270 0.8270 0.8310
1084.675635 0.8320 0.8320 0.8330 0.8360 0.8380
1089.870442 0.8390 0.8410 0.8410 0.8410 0.8400
1095.065249 0.8400 0.8390 0.8390 0.8390 0.8360
1100.260055 0.8340 0.8330 0.8320 0.8340 0.8380
1105.454862 0.8410 0.8460 0.8510 0.8540 0.8580
1110.649669 0.8610 0.8650 0.8660 0.8680 0.8680
1115.844476 0.8680 0.8670 0.8660 0.8650 0.8620
1121.039283 0.8600 0.8580 0.8570 0.8520 0.8500
1126.234089 0.8420 0.8380 0.8350 0.8360 0.8360
1131.428896 0.8400 0.8420 0.8430 0.8430 0.8430
1136.623703 0.8430 0.8440 0.8460 0.8470 0.8470
1141.818510 0.8500 0.8510 0.8520 0.8560 0.8580
1147.013317 0.8580 0.8590 0.8590 0.8600 0.8600
1152.208123 0.8590 0.8590 0.8580 0.8570 0.8560
1157.402930 0.8540 0.8540 0.8520 0.8520 0.8510
1162.597737 0.8500 0.8490 0.8480 0.8480 0.8470
1167.792544 0.8470 0.8470 0.8470 0.8470 0.8470
1172.987351 0.8460 0.8460 0.8480 0.8490 0.8500
1178.182157 0.8500 0.8510 0.8500 0.8480 0.8480
1183.376964 0.8480 0.8490 0.8500 0.8500 0.8510
1188.571771 0.8510 0.8500 0.8500 0.8490 0.8480
1193.766578 0.8480 0.8500 0.8510 0.8520 0.8530
1198.961385 0.8530 0.8520 0.8510 0.8510 0.8500
1204.156191 0.8500 0.8490 0.8490 0.8470 0.8450
1209.350998 0.8440 0.8420 0.8410 0.8410 0.8390
1214.545805 0.8380 0.8380 0.8360 0.8360 0.8380
1219.740612 0.8380 0.8380 0.8380 0.8360 0.8360
1224.935419 0.8350 0.8350 0.8350 0.8330 0.8320
1230.130226 0.8310 0.8300 0.8290 0.8280 0.8250
1235.325032 0.8240 0.8230 0.8220 0.8200 0.8190
1240.519839 0.8180 0.8160 0.8140 0.8130 0.8120
1245.714646 0.8110 0.8110 0.8110 0.8110 0.8110
1250.909453 0.8110 0.8080 0.8070 0.8060 0.8020
1256.104260 0.8010 0.8000 0.7930 0.7920 0.7910
1261.299066 0.7900 0.7880 0.7850 0.7820 0.7810
1266.493873 0.7810 0.7810 0.7810 0.7810 0.7810
1271.688680 0.7800 0.7790 0.7760 0.7740 0.7710
1276.883487 0.7690 0.7650 0.7620 0.7590 0.7570
1282.078294 0.7550 0.7540 0.7510 0.7500 0.7490
1287.273100 0.7420 0.7410 0.7380 0.7350 0.7310
1292.467907 0.7220 0.7190 0.7160 0.7130 0.7110
1297.662714 0.7080 0.7050 0.7030 0.7010 0.7030
1302.857521 0.7070 0.7090 0.7130 0.7170 0.7210
1308.052328 0.7280 0.7340 0.7390 0.7430 0.7520
1313.247134 0.7570 0.7630 0.7660 0.7700 0.7720
1318.441941 0.7750 0.7770 0.7780 0.7780 0.7790
1323.636748 0.7790 0.7770 0.7730 0.7700 0.7660
1328.831555 0.7600 0.7540 0.7490 0.7420 0.7340
1334.026362 0.7210 0.7040 0.6860 0.6700 0.6680
1339.221169 0.6710 0.6820 0.6900 0.6930 0.6920
1344.415975 0.6890 0.6830 0.6770 0.6700 0.6650
1349.610782 0.6590 0.6580 0.6670 0.6700 0.6700
1354.805589 0.6700 0.6690 0.6670 0.6650 0.6600
1360.000396 0.6540 0.6460 0.6330 0.6101 0.6000
1365.195203 0.5870 0.5750 0.5690 0.5640 0.5600
1370.390009 0.5440 0.5002 0.4343 0.3384 0.3101
1375.584816 0.2820 0.2820 0.3880 0.4529 0.5119
1380.779623 0.5479 0.5959 0.6289 0.6848 0.7049
1385.974430 0.7190 0.7250 0.7320 0.7380 0.7420
1391.169237 0.7480 0.7500 0.7510 0.7510 0.7520
1396.364043 0.7550 0.7550 0.7550 0.7550 0.7550
1401.558850 0.7550 0.7540 0.7530 0.7520 0.7510
1406.753657 0.7500 0.7480 0.7450 0.7430 0.7420
1411.948464 0.7400 0.7350 0.7300 0.7240 0.7200
1417.143271 0.7150 0.7100 0.7040 0.6980 0.6880
1422.338077 0.6730 0.6670 0.6600 0.6471 0.6341
1427.532884 0.6190 0.6000 0.5720 0.5410 0.5160
1432.727691 0.4911 0.4651 0.4381 0.4131 0.3881
1437.922498 0.3650 0.3450 0.3370 0.3280 0.3130
1443.117305 0.2960 0.2791 0.2571 0.2371 0.2171
1448.312111 0.2020 0.1590 0.1340 0.1001 0.0741
1453.506918 0.0590 0.0530 0.0510 0.0490 0.0470
1458.701725 0.0400 0.0370 0.0320 0.0210 0.0190
1463.896532 0.0210 0.0290 0.0430 0.0769 0.1337
1469.091339 0.1810 0.2420 0.3889 0.4459 0.4719
1474.286146 0.5039 0.5289 0.5649 0.5978 0.6199
1479.480952 0.6330 0.6440 0.6730 0.6880 0.6950
1484.675759 0.7030 0.7110 0.7180 0.7260 0.7330
1489.870566 0.7370 0.7420 0.7480 0.7500 0.7530
1495.065373 0.7570 0.7620 0.7640 0.7670 0.7710
1500.260180 0.7740 0.7780 0.7810 0.7850 0.7860
1505.454986 0.7900 0.7930 0.7960 0.7980 0.8000
1510.649793 0.8010 0.8050 0.8060 0.8090 0.8110
1515.844600 0.8120 0.8130 0.8150 0.8160 0.8200
1521.039407 0.8210 0.8220 0.8230 0.8250 0.8260
1526.234214 0.8260 0.8270 0.8280 0.8300 0.8320
1531.429020 0.8330 0.8340 0.8350 0.8350 0.8350
1536.623827 0.8380 0.8390 0.8400 0.8400 0.8400
1541.818634 0.8400 0.8400 0.8410 0.8440 0.8450
1547.013441 0.8460 0.8470 0.8480 0.8490 0.8490
1552.208248 0.8480 0.8480 0.8490 0.8500 0.8500
1557.403054 0.8500 0.8500 0.8510 0.8510 0.8520
1562.597861 0.8530 0.8540 0.8530 0.8530 0.8530
1567.792668 0.8520 0.8520 0.8520 0.8530 0.8530
1572.987475 0.8540 0.8540 0.8540 0.8540 0.8540
1578.182282 0.8530 0.8520 0.8530 0.8540 0.8540
1583.377089 0.8540 0.8550 0.8550 0.8550 0.8550
1588.571895 0.8560 0.8560 0.8560 0.8560 0.8570
1593.766702 0.8570 0.8570 0.8570 0.8570 0.8570
1598.961509 0.8590 0.8600 0.8580 0.8580 0.8570
1604.156316 0.8580 0.8590 0.8600 0.8630 0.8630
1609.351123 0.8600 0.8590 0.8590 0.8590 0.8590
1614.545929 0.8600 0.8610 0.8620 0.8630 0.8630
1619.740736 0.8630 0.8620 0.8620 0.8620 0.8620
1624.935543 0.8620 0.8630 0.8630 0.8630 0.8650
1630.130350 0.8650 0.8650 0.8660 0.8660 0.8660
1635.325157 0.8670 0.8670 0.8670 0.8670 0.8670
1640.519963 0.8670 0.8670 0.8680 0.8680 0.8680
1645.714770 0.8680 0.8670 0.8670 0.8670 0.8670
1650.909577 0.8680 0.8680 0.8680 0.8680 0.8680
1656.104384 0.8680 0.8680 0.8690 0.8690 0.8690
1661.299191 0.8680 0.8680 0.8680 0.8680 0.8680
1666.493997 0.8690 0.8690 0.8690 0.8690 0.8690
1671.688804 0.8690 0.8690 0.8690 0.8690 0.8680
1676.883611 0.8670 0.8670 0.8670 0.8680 0.8680
1682.078418 0.8680 0.8690 0.8680 0.8680 0.8670
1687.273225 0.8670 0.8670 0.8670 0.8670 0.8670
1692.468031 0.8670 0.8670 0.8670 0.8670 0.8670
1697.662838 0.8680 0.8690 0.8690 0.8690 0.8700
1702.857645 0.8700 0.8700 0.8700 0.8700 0.8700
1708.052452 0.8700 0.8690 0.8690 0.8690 0.8690
1713.247259 0.8690 0.8700 0.8710 0.8720 0.8720
1718.442066 0.8710 0.8700 0.8700 0.8730 0.8730
1723.636872 0.8730 0.8730 0.8740 0.8740 0.8750
1728.831679 0.8760 0.8750 0.8740 0.8740 0.8730
1734.026486 0.8730 0.8730 0.8750 0.8760 0.8770
1739.221293 0.8770 0.8770 0.8770 0.8770 0.8760
1744.416100 0.8760 0.8760 0.8760 0.8760 0.8760
1749.610906 0.8760 0.8770 0.8780 0.8780 0.8780
1754.805713 0.8780 0.8780 0.8770 0.8770 0.8770
1760.000520 0.8780 0.8780 0.8790 0.8790 0.8790
1765.195327 0.8790 0.8790 0.8780 0.8770 0.8760
1770.390134 0.8760 0.8760 0.8770 0.8770 0.8770
1775.584940 0.8770 0.8770 0.8770 0.8760 0.8760
1780.779747 0.8760 0.8760 0.8760 0.8760 0.8760
1785.974554 0.8760 0.8760 0.8760 0.8770 0.8770
1791.169361 0.8770 0.8770 0.8770 0.8760 0.8760
1796.364168 0.8760 0.8750 0.8750 0.8760 0.8770
1801.558974 0.8770 0.8770 0.8760 0.8760 0.8760
1806.753781 0.8760 0.8760 0.8770 0.8770 0.8770
1811.948588 0.8760 0.8760 0.8750 0.8750 0.8750
1817.143395 0.8750 0.8760 0.8760 0.8760 0.8760
1822.338202 0.8760 0.8760 0.8760 0.8760 0.8770
1827.533009 0.8760 0.8760 0.8760 0.8760 0.8760
1832.727815 0.8760 0.8750 0.8750 0.8760 0.8770
1837.922622 0.8770 0.8780 0.8780 0.8780 0.8790
1843.117429 0.8790 0.8790 0.8790 0.8790 0.8790
1848.312236 0.8790 0.8790 0.8780 0.8780 0.8780
1853.507043 0.8780 0.8780 0.8780 0.8780 0.8780
1858.701849 0.8780 0.8780 0.8780 0.8780 0.8780
1863.896656 0.8790 0.8780 0.8780 0.8770 0.8770
1869.091463 0.8770 0.8770 0.8770 0.8770 0.8770
1874.286270 0.8770 0.8770 0.8770 0.8770 0.8770
1879.481077 0.8770 0.8770 0.8770 0.8770 0.8770
1884.675883 0.8770 0.8770 0.8770 0.8770 0.8760
1889.870690 0.8750 0.8740 0.8740 0.8730 0.8740
1895.065497 0.8740 0.8750 0.8760 0.8760 0.8750
1900.260304 0.8750 0.8740 0.8730 0.8740 0.8740
1905.455111 0.8740 0.8740 0.8750 0.8750 0.8750
1910.649917 0.8750 0.8750 0.8740 0.8730 0.8730
1915.844724 0.8730 0.8730 0.8730 0.8730 0.8740
1921.039531 0.8740 0.8740 0.8730 0.8730 0.8730
1926.234338 0.8740 0.8750 0.8750 0.8750 0.8760
1931.429145 0.8760 0.8760 0.8750 0.8750 0.8760
1936.623951 0.8760 0.8750 0.8740 0.8740 0.8740
1941.818758 0.8730 0.8730 0.8740 0.8750 0.8760
1947.013565 0.8770 0.8780 0.8790 0.8790 0.8790
1952.208372 0.8780 0.8770 0.8770 0.8770 0.8770
1957.403179 0.8770 0.8770 0.8770 0.8780 0.8790
1962.597986 0.8780 0.8780 0.8780 0.8760 0.8760
1967.792792 0.8750 0.8760 0.8780 0.8780 0.8780
1972.987599 0.8770 0.8770 0.8760 0.8750 0.8750
1978.182406 0.8750 0.8750 0.8750 0.8780 0.8790
1983.377213 0.8790 0.8790 0.8790 0.8790 0.8780
1988.572020 0.8740 0.8740 0.8760 0.8770 0.8770
1993.766826 0.8760 0.8750 0.8750 0.8750 0.8740
1998.961633 0.8740 0.8750 0.8765 0.8780 0.8805
2004.156440 0.8830 0.8830 0.8830 0.8820 0.8810
2009.351247 0.8800 0.8790 0.8780 0.8770 0.8765
2014.546054 0.8760 0.8750 0.8740 0.8730 0.8720
2019.740860 0.8715 0.8710 0.8710 0.8710 0.8710
2024.935667 0.8710 0.8715 0.8720 0.8720 0.8720
2030.130474 0.8720 0.8720 0.8720 0.8720 0.8725
2035.325281 0.8730 0.8730 0.8730 0.8730 0.8730
2040.520088 0.8735 0.8741 0.8751 0.8760 0.8765
2045.714894 0.8770 0.8770 0.8770 0.8770 0.8770
2050.909701 0.8770 0.8770 0.8770 0.8770 0.8775
2056.104508 0.8781 0.8796 0.8810 0.8815 0.8820
2061.299315 0.8820 0.8820 0.8825 0.8830 0.8835
2066.494122 0.8840 0.8845 0.8850 0.8850 0.8850
2071.688929 0.8855 0.8860 0.8865 0.8870 0.8870
2076.883735 0.8870 0.8864 0.8861 0.8866 0.8870
2082.078542 0.8870 0.8870 0.8870 0.8871 0.8876
2087.273349 0.8880 0.8880 0.8881 0.8886 0.8890
2092.468156 0.8890 0.8890 0.8890 0.8890 0.8890
2097.662963 0.8890 0.8890 0.8890 0.8890 0.8889
2102.857769 0.8884 0.8880 0.8880 0.8880 0.8880
2108.052576 0.8880 0.8880 0.8880 0.8880 0.8879
2113.247383 0.8874 0.8870 0.8870 0.8869 0.8864
2118.442190 0.8860 0.8860 0.8859 0.8854 0.8849
2123.636997 0.8844 0.8841 0.8846 0.8850 0.8850
2128.831803 0.8849 0.8844 0.8839 0.8834 0.8828
2134.026610 0.8818 0.8809 0.8804 0.8800 0.8800
2139.221417 0.8800 0.8800 0.8799 0.8794 0.8789
2144.416224 0.8784 0.8779 0.8774 0.8770 0.8770
2149.611031 0.8770 0.8770 0.8770 0.8770 0.8770
2154.805837 0.8770 0.8770 0.8770 0.8770 0.8770
2160.000644 0.8771 0.8776 0.8781 0.8786 0.8791
2165.195451 0.8796 0.8800 0.8800 0.8801 0.8806
2170.390258 0.8809 0.8804 0.8799 0.8794 0.8789
2175.585065 0.8784 0.8781 0.8786 0.8791 0.8796
2180.779871 0.8801 0.8806 0.8809 0.8804 0.8800
2185.974678 0.8800 0.8800 0.8800 0.8801 0.8806
2191.169485 0.8811 0.8816 0.8821 0.8826 0.8830
2196.364292 0.8830 0.8830 0.8830 0.8829 0.8824
2201.559099 0.8819 0.8814 0.8807 0.8797 0.8790
2206.753906 0.8790 0.8792 0.8797 0.8802 0.8807
2211.948712 0.8810 0.8810 0.8808 0.8803 0.8800
2217.143519 0.8800 0.8800 0.8800 0.8798 0.8793
2222.338326 0.8790 0.8790 0.8788 0.8783 0.8780
2227.533133 0.8780 0.8780 0.8780 0.8780 0.8780
2232.727940 0.8778 0.8773 0.8768 0.8763 0.8760
2237.922746 0.8760 0.8760 0.8760 0.8758 0.8753
2243.117553 0.8750 0.8750 0.8750 0.8750 0.8750
2248.312360 0.8750 0.8752 0.8757 0.8758 0.8753
2253.507167 0.8750 0.8750 0.8748 0.8743 0.8738
2258.701974 0.8733 0.8732 0.8737 0.8740 0.8740
2263.896780 0.8742 0.8747 0.8750 0.8750 0.8750
2269.091587 0.8750 0.8750 0.8750 0.8748 0.8743
2274.286394 0.8740 0.8740 0.8742 0.8747 0.8750
2279.481201 0.8750 0.8748 0.8743 0.8742 0.8747
2284.676008 0.8748 0.8743 0.8738 0.8733 0.8730
2289.870814 0.8730 0.8728 0.8723 0.8720 0.8720
2295.065621 0.8720 0.8720 0.8724 0.8734 0.8738
2300.260428 0.8733 0.8728 0.8723 0.8718 0.8713
2305.455235 0.8710 0.8710 0.8710 0.8710 0.8708
2310.650042 0.8703 0.8695 0.8685 0.8678 0.8673
2315.844849 0.8668 0.8663 0.8660 0.8660 0.8660
2321.039655 0.8660 0.8660 0.8660 0.8660 0.8660
2326.234462 0.8660 0.8660 0.8660 0.8660 0.8658
2331.429269 0.8653 0.8650 0.8650 0.8645 0.8635
2336.624076 0.8635 0.8645 0.8650 0.8650 0.8650
2341.818883 0.8650 0.8650 0.8650 0.8653 0.8658
2347.013689 0.8663 0.8668 0.8673 0.8678 0.8680
2352.208496 0.8680 0.8675 0.8665 0.8663 0.8668
2357.403303 0.8670 0.8670 0.8670 0.8670 0.8667
2362.598110 0.8662 0.8660 0.8660 0.8663 0.8668
2367.792917 0.8670 0.8670 0.8673 0.8678 0.8680
2372.987723 0.8680 0.8680 0.8680 0.8680 0.8680
2378.182530 0.8680 0.8680 0.8680 0.8680 0.8680
2383.377337 0.8680 0.8677 0.8672 0.8670 0.8670
2388.572144 0.8673 0.8678 0.8680 0.8680 0.8680
2393.766951 0.8680 0.8680 0.8680 0.8683 0.8688
2398.961757 0.8693 0.8698 0.8700 0.8700 0.8700
2404.156564 0.8700 0.8703 0.8708 0.8710 0.8710
2409.351371 0.8710 0.8710 0.8710 0.8710 0.8704
2414.546178 0.8694 0.8690 0.8690 0.8696 0.8706
2419.740985 0.8713 0.8718 0.8720 0.8720 0.8720
2424.935791 0.8720 0.8720 0.8720 0.8720 0.8720
2430.130598 0.8720 0.8720 0.8720 0.8720 0.8717
2435.325405 0.8712 0.8707 0.8702 0.8700 0.8700
2440.520212 0.8697 0.8692 0.8690 0.8690 0.8690
2445.715019 0.8690 0.8690 0.8690 0.8690 0.8690
2450.909826 0.8690 0.8690 0.8693 0.8698 0.8703
2456.104632 0.8708 0.8710 0.8710 0.8710 0.8710
2461.299439 0.8710 0.8710 0.8713 0.8718 0.8720
2466.494246 0.8720 0.8717 0.8712 0.8707 0.8702
2471.689053 0.8700 0.8700 0.8700 0.8700 0.8700
2476.883860 0.8700 0.8700 0.8700 0.8704 0.8709
2482.078666 0.8710 0.8710 0.8710 0.8710 0.8710
2487.273473 0.8710 0.8706 0.8701 0.8700 0.8700
2492.468280 0.8696 0.8691 0.8694 0.8699 0.8696
2497.663087 0.8691 0.8686 0.8681 0.8676 0.8671
2502.857894 0.8662 0.8652 0.8642 0.8632 0.8630
2508.052700 0.8630 0.8630 0.8630 0.8630 0.8630
2513.247507 0.8626 0.8621 0.8616 0.8611 0.8599
2518.442314 0.8583 0.8576 0.8571 0.8562 0.8552
2523.637121 0.8534 0.8514 0.8506 0.8501 0.8500
2528.831928 0.8500 0.8496 0.8491 0.8478 0.8463
2534.026734 0.8460 0.8460 0.8460 0.8460 0.8460
2539.221541 0.8460 0.8456 0.8451 0.8450 0.8450
2544.416348 0.8450 0.8450 0.8446 0.8441 0.8440
2549.611155 0.8440 0.8440 0.8440 0.8436 0.8431
2554.805962 0.8418 0.8403 0.8392 0.8382 0.8372
2560.000769 0.8362 0.8356 0.8351 0.8333 0.8313
2565.195575 0.8306 0.8301 0.8292 0.8282 0.8276
2570.390382 0.8271 0.8257 0.8242 0.8227 0.8212
2575.585189 0.8206 0.8201 0.8187 0.8172 0.8166
2580.779996 0.8161 0.8151 0.8141 0.8127 0.8112
2585.974803 0.8101 0.8091 0.8077 0.8062 0.8056
2591.169609 0.8051 0.8046 0.8041 0.8027 0.8012
2596.364416 0.8006 0.8001 0.7996 0.7991 0.7981
2601.559223 0.7971 0.7961 0.7951 0.7936 0.7921
2606.754030 0.7911 0.7901 0.7900 0.7900 0.7895
2611.948837 0.7890 0.7885 0.7880 0.7871 0.7861
2617.143643 0.7842 0.7822 0.7815 0.7810 0.7805
2622.338450 0.7800 0.7795 0.7790 0.7785 0.7780
2627.533257 0.7775 0.7770 0.7751 0.7731 0.7725
2632.728064 0.7720 0.7715 0.7710 0.7705 0.7700
2637.922871 0.7686 0.7671 0.7665 0.7660 0.7646
2643.117677 0.7631 0.7620 0.7610 0.7600 0.7590
2648.312484 0.7580 0.7570 0.7560 0.7550 0.7531
2653.507291 0.7511 0.7505 0.7500 0.7490 0.7480
2658.702098 0.7446 0.7411 0.7391 0.7371 0.7340
2663.896905 0.7310 0.7285 0.7260 0.7235 0.7210
2669.091711 0.7190 0.7170 0.7150 0.7130 0.7125
2674.286518 0.7120 0.7120 0.7120 0.7125 0.7130
2679.481325 0.7145 0.7160 0.7175 0.7190 0.7205
2684.676132 0.7220 0.7230 0.7241 0.7271 0.7301
2689.870939 0.7326 0.7351 0.7381 0.7411 0.7446
2695.065746 0.7480 0.7496 0.7510 0.7520 0.7531
2700.260552 0.7551 0.7570 0.7570 0.7570 0.7560
2705.455359 0.7550 0.7545 0.7539 0.7524 0.7509
2710.650166 0.7499 0.7489 0.7469 0.7449 0.7434
2715.844973 0.7418 0.7393 0.7369 0.7359 0.7349
2721.039780 0.7334 0.7317 0.7277 0.7237 0.7191
2726.234586 0.7141 0.7046 0.6960 0.6960 0.6966
2731.429393 0.7036 0.7101 0.7111 0.7122 0.7142
2736.624200 0.7162 0.7187 0.7211 0.7221 0.7231
2741.819007 0.7241 0.7250 0.7255 0.7260 0.7260
2747.013814 0.7260 0.7260 0.7259 0.7254 0.7250
2752.208620 0.7250 0.7249 0.7244 0.7239 0.7234
2757.403427 0.7229 0.7224 0.7218 0.7203 0.7189
2762.598234 0.7179 0.7167 0.7147 0.7129 0.7124
2767.793041 0.7116 0.7091 0.7065 0.7035 0.7008
2772.987848 0.6998 0.6981 0.6921 0.6864 0.6824
2778.182654 0.6784 0.6749 0.6714 0.6679 0.6644
2783.377461 0.6609 0.6570 0.6505 0.6441 0.6385
2788.572268 0.6335 0.6310 0.6280 0.6225 0.6171
2793.767075 0.6121 0.6075 0.6050 0.6013 0.5923
2798.961882 0.5836 0.5761 0.5681 0.5581 0.5481
2804.156689 0.5381 0.5283 0.5193 0.5106 0.5036
2809.351495 0.4956 0.4846 0.4740 0.4644 0.4544
2814.546302 0.4424 0.4305 0.4190 0.4076 0.3966
2819.741109 0.3842 0.3667 0.3506 0.3396 0.3285
2824.935916 0.3169 0.3062 0.2982 0.2873 0.2660
2830.130723 0.2450 0.2244 0.2041 0.1840 0.1623
2835.325529 0.1353 0.1070 0.0750 0.0477 0.0347
2840.520336 0.0219 0.0094 0.0000 0.0000 0.0000
2845.715143 0.0000 0.0000 0.0000 0.0000 0.0000
2850.909950 0.0000 0.0000 0.0000 0.0000 0.0000
2856.104757 0.0000 0.0000 0.0000 0.0000 0.0000
2861.299563 0.0000 0.0000 0.0000 0.0000 0.0000
2866.494370 0.0000 0.0000 0.0000 0.0000 0.0000
2871.689177 0.0000 0.0000 0.0000 0.0000 0.0000
2876.883984 0.0000 0.0000 0.0000 0.0000 0.0000
2882.078791 0.0000 0.0000 0.0000 0.0000 0.0000
2887.273597 0.0000 0.0000 0.0000 0.0000 0.0000
2892.468404 0.0000 0.0000 0.0000 0.0000 0.0000
2897.663211 0.0000 0.0000 0.0000 0.0000 0.0000
2902.858018 0.0000 0.0000 0.0000 0.0000 0.0000
2908.052825 0.0000 0.0000 0.0000 0.0000 0.0000
2913.247631 0.0000 0.0000 0.0000 0.0000 0.0000
2918.442438 0.0000 0.0000 0.0000 0.0000 0.0000
2923.637245 0.0000 0.0000 0.0000 0.0000 0.0000
2928.832052 0.0000 0.0000 0.0000 0.0000 0.0000
2934.026859 0.0000 0.0000 0.0000 0.0000 0.0000
2939.221666 0.0000 0.0000 0.0000 0.0000 0.0000
2944.416472 0.0000 0.0000 0.0000 0.0000 0.0000
2949.611279 0.0000 0.0000 0.0000 0.0000 0.0000
2954.806086 0.0000 0.0000 0.0000 0.0000 0.0000
2960.000893 0.0000 0.0000 0.0000 0.0000 0.0000
2965.195700 0.0000 0.0000 0.0064 0.0209 0.0369
2970.390506 0.0549 0.0705 0.0830 0.0980 0.1162
2975.585313 0.1371 0.1611 0.1803 0.1938 0.2124
2980.780120 0.2369 0.2575 0.2735 0.2949 0.3224
2985.974927 0.3433 0.3568 0.3710 0.3861 0.3985
2991.169734 0.4080 0.4180 0.4285 0.4359 0.4400
2996.364540 0.4479 0.4599 0.4707 0.4802 0.4875
3001.559347 0.4925 0.4982 0.5047 0.5150 0.5290
3006.754154 0.5427 0.5563 0.5650 0.5690 0.5745
3011.948961 0.5815 0.5885 0.5955 0.6013 0.6058
3017.143768 0.6106 0.6156 0.6204 0.6249 0.6291
3022.338574 0.6331 0.6374 0.6419 0.6472 0.6532
3027.533381 0.6600 0.6675 0.6734 0.6779 0.6827
3032.728188 0.6877 0.6921 0.6961 0.6988 0.7003
3037.922995 0.7030 0.7065 0.7102 0.7142 0.7177
3043.117802 0.7207 0.7231 0.7251 0.7274 0.7299
3048.312609 0.7327 0.7357 0.7376 0.7386 0.7401
3053.507415 0.7421 0.7447 0.7477 0.7504 0.7530
3058.702222 0.7555 0.7580 0.7596 0.7606 0.7619
3063.897029 0.7634 0.7646 0.7656 0.7669 0.7684
3069.091836 0.7693 0.7698 0.7709 0.7724 0.7745
3074.286643 0.7770 0.7789 0.7804 0.7819 0.7834
3079.481449 0.7846 0.7856 0.7869 0.7884 0.7899
3084.676256 0.7914 0.7926 0.7936 0.7956 0.7981
3089.871063 0.7993 0.7998 0.8006 0.8016 0.8026
3095.065870 0.8036 0.8046 0.8056 0.8066 0.8076
3100.260677 0.8093 0.8113 0.8127 0.8137 0.8150
3105.455483 0.8165 0.8173 0.8178 0.8183 0.8188
3110.650290 0.8190 0.8190 0.8193 0.8198 0.8203
3115.845097 0.8208 0.8213 0.8218 0.8223 0.8228
3121.039904 0.8230 0.8230 0.8233 0.8238 0.8243
3126.234711 0.8248 0.8250 0.8250 0.8253 0.8258
3131.429517 0.8267 0.8277 0.8280 0.8280 0.8277
3136.624324 0.8272 0.8267 0.8262 0.8260 0.8260
3141.819131 0.8260 0.8260 0.8260 0.8260 0.8260
3147.013938 0.8260 0.8260 0.8260 0.8260 0.8260
3152.208745 0.8260 0.8260 0.8260 0.8260 0.8260
3157.403551 0.8260 0.8260 0.8260 0.8264 0.8269
3162.598358 0.8270 0.8270 0.8274 0.8279 0.8280
3167.793165 0.8280 0.8276 0.8271 0.8270 0.8270
3172.987972 0.8274 0.8279 0.8280 0.8280 0.8280
3178.182779 0.8280 0.8280 0.8280 0.8284 0.8289
3183.377586 0.8290 0.8290 0.8290 0.8290 0.8290
3188.572392 0.8290 0.8294 0.8299 0.8300 0.8300
3193.767199 0.8304 0.8309 0.8314 0.8319 0.8324
3198.962006 0.8329 0.8338 0.8348 0.8370 0.8395
3204.156813 0.8412 0.8427 0.8442 0.8457 0.8460
3209.351620 0.8460 0.8468 0.8478 0.8484 0.8489
3214.546426 0.8494 0.8499 0.8504 0.8509 0.8514
3219.741233 0.8519 0.8528 0.8538 0.8540 0.8540
3224.936040 0.8553 0.8568 0.8578 0.8588 0.8590
3230.130847 0.8590 0.8594 0.8599 0.8596 0.8591
3235.325654 0.8594 0.8599 0.8604 0.8609 0.8614
3240.520460 0.8619 0.8607 0.8592 0.8590 0.8590
3245.715267 0.8599 0.8609 0.8610 0.8610 0.8610
3250.910074 0.8610 0.8619 0.8629 0.8630 0.8630
3256.104881 0.8621 0.8611 0.8610 0.8610 0.8606
3261.299688 0.8601 0.8613 0.8628 0.8639 0.8649
3266.494494 0.8650 0.8650 0.8641 0.8631 0.8630
3271.689301 0.8630 0.8630 0.8630 0.8630 0.8630
3276.884108 0.8630 0.8630 0.8630 0.8630 0.8630
3282.078915 0.8630 0.8639 0.8649 0.8655 0.8660
3287.273722 0.8665 0.8670 0.8670 0.8670 0.8670
3292.468529 0.8670 0.8675 0.8680 0.8680 0.8680
3297.663335 0.8685 0.8690 0.8690 0.8690 0.8695
3302.858142 0.8700 0.8700 0.8700 0.8700 0.8700
3308.052949 0.8695 0.8690 0.8690 0.8690 0.8685
3313.247756 0.8680 0.8680 0.8680 0.8690 0.8700
3318.442563 0.8700 0.8700 0.8700 0.8700 0.8705
3323.637369 0.8710 0.8705 0.8700 0.8690 0.8680
3328.832176 0.8675 0.8670 0.8670 0.8670 0.8670
3334.026983 0.8670 0.8670 0.8670 0.8675 0.8680
3339.221790 0.8680 0.8680 0.8680 0.8680 0.8675
3344.416597 0.8670 0.8670 0.8670 0.8670 0.8670
3349.611403 0.8665 0.8660 0.8660 0.8660 0.8655
3354.806210 0.8650 0.8640 0.8630 0.8625 0.8620
3360.001017 0.8615 0.8610 0.8610 0.8610 0.8605
3365.195824 0.8600 0.8600 0.8600 0.8600 0.8600
3370.390631 0.8600 0.8600 0.8600 0.8600 0.8600
3375.585437 0.8600 0.8600 0.8600 0.8600 0.8600
3380.780244 0.8605 0.8610 0.8615 0.8620 0.8620
3385.975051 0.8620 0.8620 0.8620 0.8620 0.8620
3391.169858 0.8615 0.8610 0.8610 0.8610 0.8610
3396.364665 0.8610 0.8610 0.8610 0.8615 0.8620
3401.559471 0.8625 0.8632 0.8652 0.8670 0.8670
3406.754278 0.8670 0.8675 0.8680 0.8680 0.8680
3411.949085 0.8680 0.8680 0.8680 0.8680 0.8680
3417.143892 0.8679 0.8674 0.8670 0.8670 0.8671
3422.338699 0.8676 0.8681 0.8686 0.8690 0.8690
3427.533506 0.8690 0.8690 0.8690 0.8690 0.8690
3432.728312 0.8690 0.8690 0.8690 0.8690 0.8690
3437.923119 0.8690 0.8690 0.8690 0.8690 0.8690
3443.117926 0.8690 0.8690 0.8690 0.8690 0.8690
3448.312733 0.8689 0.8684 0.8680 0.8680 0.8680
3453.507540 0.8680 0.8681 0.8686 0.8690 0.8690
3458.702346 0.8690 0.8690 0.8690 0.8690 0.8690
3463.897153 0.8690 0.8690 0.8690 0.8690 0.8690
3469.091960 0.8690 0.8690 0.8690 0.8690 0.8691
3474.286767 0.8696 0.8700 0.8700 0.8700 0.8700
3479.481574 0.8701 0.8706 0.8710 0.8710 0.8710
3484.676380 0.8710 0.8711 0.8716 0.8720 0.8720
3489.871187 0.8720 0.8720 0.8720 0.8720 0.8721
3495.065994 0.8726 0.8730 0.8730 0.8731 0.8736
3500.260801 0.8740 0.8740 0.8741 0.8746 0.8750
3505.455608 0.8750 0.8750 0.8750 0.8751 0.8756
3510.650414 0.8760 0.8760 0.8760 0.8760 0.8760
3515.845221 0.8760 0.8761 0.8766 0.8771 0.8776
3521.040028 0.8780 0.8780 0.8780 0.8780 0.8781
3526.234835 0.8786 0.8790 0.8790 0.8790 0.8790
3531.429642 0.8790 0.8790 0.8790 0.8790 0.8788
3536.624449 0.8783 0.8780 0.8780 0.8780 0.8780
3541.819255 0.8778 0.8773 0.8768 0.8763 0.8760
3547.014062 0.8760 0.8758 0.8753 0.8750 0.8750
3552.208869 0.8748 0.8743 0.8740 0.8740 0.8740
3557.403676 0.8740 0.8738 0.8733 0.8730 0.8730
3562.598483 0.8730 0.8730 0.8730 0.8730 0.8728
3567.793289 0.8723 0.8720 0.8720 0.8718 0.8713
3572.988096 0.8710 0.8710 0.8708 0.8703 0.8698
3578.182903 0.8693 0.8690 0.8690 0.8688 0.8683
3583.377710 0.8678 0.8673 0.8668 0.8663 0.8660
3588.572517 0.8660 0.8658 0.8653 0.8646 0.8636
3593.767323 0.8628 0.8623 0.8618 0.8613 0.8606
3598.962130 0.8596 0.8586 0.8576 0.8564 0.8549
3604.156937 0.8536 0.8526 0.8518 0.8513 0.8510
3609.351744 0.8510 0.8510 0.8510 0.8510 0.8510
3614.546551 0.8510 0.8510 0.8512 0.8517 0.8520
3619.741357 0.8520 0.8522 0.8527 0.8532 0.8537
3624.936164 0.8542 0.8547 0.8552 0.8557 0.8558
3630.130971 0.8553 0.8552 0.8557 0.8560 0.8560
3635.325778 0.8560 0.8560 0.8564 0.8575 0.8582
3640.520585 0.8587 0.8590 0.8590 0.8583 0.8568
3645.715391 0.8560 0.8560 0.8560 0.8560 0.8560
3650.910198 0.8560 0.8560 0.8560 0.8560 0.8560
3656.105005 0.8560 0.8560 0.8560 0.8560 0.8562
3661.299812 0.8567 0.8572 0.8577 0.8580 0.8580
3666.494619 0.8578 0.8573 0.8570 0.8570 0.8570
3671.689426 0.8570 0.8570 0.8570 0.8568 0.8563
3676.884232 0.8563 0.8568 0.8570 0.8570 0.8567
3682.079039 0.8562 0.8557 0.8552 0.8547 0.8542
3687.273846 0.8543 0.8548 0.8550 0.8550 0.8550
3692.468653 0.8550 0.8553 0.8558 0.8557 0.8552
3697.663460 0.8553 0.8558 0.8565 0.8575 0.8583
3702.858266 0.8588 0.8590 0.8590 0.8587 0.8582
3708.053073 0.8577 0.8572 0.8567 0.8562 0.8560
3713.247880 0.8560 0.8560 0.8560 0.8563 0.8568
3718.442687 0.8573 0.8578 0.8580 0.8580 0.8583
3723.637494 0.8588 0.8587 0.8582 0.8580 0.8580
3728.832300 0.8574 0.8564 0.8560 0.8560 0.8566
3734.027107 0.8576 0.8580 0.8580 0.8580 0.8580
3739.221914 0.8577 0.8572 0.8570 0.8570 0.8576
3744.416721 0.8586 0.8593 0.8598 0.8600 0.8600
3749.611528 0.8600 0.8600 0.8600 0.8600 0.8597
3754.806334 0.8592 0.8590 0.8590 0.8587 0.8582
3760.001141 0.8580 0.8580 0.8577 0.8572 0.8567
3765.195948 0.8562 0.8560 0.8560 0.8560 0.8560
3770.390755 0.8560 0.8560 0.8560 0.8560 0.8560
3775.585562 0.8560 0.8563 0.8568 0.8567 0.8562
3780.780369 0.8560 0.8560 0.8560 0.8560 0.8560
3785.975175 0.8560 0.8557 0.8552 0.8550 0.8550
3791.169982 0.8550 0.8550 0.8547 0.8542 0.8540
3796.364789 0.8540 0.8537 0.8532 0.8530 0.8530
3801.559596 0.8530 0.8530 0.8527 0.8521 0.8520
3806.754403 0.8520 0.8516 0.8511 0.8510 0.8510
3811.949209 0.8510 0.8510 0.8510 0.8510 0.8510
3817.144016 0.8510 0.8510 0.8510 0.8510 0.8510
3822.338823 0.8510 0.8510 0.8510 0.8510 0.8510
3827.533630 0.8510 0.8510 0.8510 0.8510 0.8510
3832.728437 0.8510 0.8510 0.8510 0.8510 0.8510
3837.923243 0.8510 0.8510 0.8510 0.8510 0.8510
3843.118050 0.8510 0.8510 0.8510 0.8510 0.8510
3848.312857 0.8510 0.8510 0.8510 0.8510 0.8510
3853.507664 0.8514 0.8519 0.8520 0.8520 0.8520
3858.702471 0.8520 0.8520 0.8520 0.8520 0.8520
3863.897277 0.8520 0.8520 0.8520 0.8520 0.8520
3869.092084 0.8520 0.8520 0.8520 0.8520 0.8520
3874.286891 0.8520 0.8520 0.8520 0.8520 0.8520
3879.481698 0.8520 0.8516 0.8511 0.8510 0.8510
3884.676505 0.8510 0.8510 0.8510 0.8510 0.8510
3889.871311 0.8510 0.8506 0.8501 0.8500 0.8500
3895.066118 0.8500 0.8500 0.8500 0.8500 0.8500
3900.260925 0.8500 0.8496 0.8491 0.8490 0.8490
3905.455732 0.8486 0.8481 0.8480 0.8480 0.8480
3910.650539 0.8480 0.8480 0.8480 0.8480 0.8480
3915.845346 0.8480 0.8480 0.8480 0.8480 0.8480
3921.040152 0.8480 0.8476 0.8471 0.8470 0.8470
3926.234959 0.8470 0.8470 0.8470 0.8470 0.8470
3931.429766 0.8470 0.8470 0.8470 0.8466 0.8461
3936.624573 0.8460 0.8460 0.8460 0.8460 0.8460
3941.819380 0.8460 0.8460 0.8460 0.8460 0.8460
3947.014186 0.8460 0.8460 0.8460 0.8460 0.8460
3952.208993 0.8460 0.8460 0.8460 0.8460 0.8460
3957.403800 0.8460 0.8460 0.8460 0.8460 0.8455
3962.598607 0.8450 0.8450 0.8450 0.8450 0.8450
3967.793414 0.8450 0.8450 0.8445 0.8440 0.8440
3972.988220 0.8440 0.8435 0.8430 0.8425 0.8420
3978.183027 0.8410 0.8400 0.8390 0.8380 0.8366
3983.377834 0.8351 0.8345 0.8340 0.8335 0.8330
3988.572641 0.8325 0.8320 0.8320 0.8320 0.8315
3993.767448 0.8310 0.8315 0.8320 0.8315 0.8310
##END=
