##TITLE=n-NONANE
##JCAMP-DX=4.24
##DATA TYPE=INFRARED SPECTRUM
##CLASS=COBLENTZ III
##ORIGIN=DOW CHEMICAL COMPANY
##OWNER=COBLENTZ SOCIETY
Collection (C) 2018 copyright by the U.S. Secretary of Commerce
on behalf of the United States of America. All rights reserved.
##DATE=1960/12/30
##NAMES=nonane
##CAS REGISTRY NO=111-84-2
##MOLFORM=C9 H20
##SOURCE REFERENCE=COBLENTZ NO. 6786
##$NIST SOURCE=COBLENTZ
##$NIST IMAGE=cob6786
##SPECTROMETER/DATA SYSTEM=DOW KBr FOREPRISM-GRATING
##INSTRUMENT PARAMETERS=GRATING BLAZED AT 3.5, 12.0, 20.0 MICRONS AND CHANGED AT 5.0, 7.5, 14.9 MICRONS
##STATE=LIQUID (NEAT)
##PATH LENGTH=0.011 CM
$$SPECTRAL FEATURE AROUND 1550 CM^-^1 IS PROBABLY DUE TO CS2
##SAMPLING PROCEDURE=TRANSMISSION
##RESOLUTION=4
##DATA PROCESSING=DIGITIZED BY NIST FROM HARD COPY (FROM TWO SEGMENTS)
##XUNITS=1/CM
##YUNITS=TRANSMITTANCE
##XFACTOR=1.000000
##YFACTOR=1
##DELTAX=0.878640
##FIRSTX=446.568
##LASTX=3796.82
##FIRSTY=0.944
##MAXX=3796.82
##MINX=446.568
##MAXY=1.013
##MINY=0
##NPOINTS=3814
##XYDATA=(X++(Y..Y))
446.568000 0.9440 0.9460 0.9460 0.9460 0.9460
450.961202 0.9470 0.9480 0.9480 0.9500 0.9500
455.354403 0.9510 0.9510 0.9510 0.9520 0.9520
459.747605 0.9520 0.9520 0.9520 0.9550 0.9550
464.140806 0.9550 0.9550 0.9570 0.9570 0.9580
468.534008 0.9580 0.9580 0.9580 0.9580 0.9580
472.927210 0.9590 0.9590 0.9590 0.9580 0.9580
477.320411 0.9580 0.9580 0.9590 0.9590 0.9590
481.713613 0.9590 0.9590 0.9590 0.9590 0.9590
486.106814 0.9590 0.9590 0.9610 0.9610 0.9610
490.500016 0.9610 0.9610 0.9620 0.9650 0.9660
494.893218 0.9660 0.9680 0.9680 0.9680 0.9680
499.286419 0.9690 0.9690 0.9690 0.9700 0.9700
503.679621 0.9730 0.9720 0.9730 0.9730 0.9750
508.072822 0.9770 0.9790 0.9800 0.9800 0.9800
512.466024 0.9800 0.9800 0.9820 0.9830 0.9830
516.859225 0.9830 0.9830 0.9830 0.9830 0.9830
521.252427 0.9830 0.9830 0.9840 0.9870 0.9870
525.645629 0.9870 0.9880 0.9880 0.9900 0.9910
530.038830 0.9930 0.9930 0.9940 0.9940 0.9970
534.432032 0.9980 0.9980 0.9980 1.0000 1.0000
538.825233 1.0000 1.0010 1.0010 1.0020 1.0020
543.218435 1.0020 1.0040 1.0040 1.0050 1.0050
547.611637 1.0050 1.0060 1.0060 1.0060 1.0080
552.004838 1.0080 1.0080 1.0090 1.0090 1.0090
556.398040 1.0090 1.0090 1.0090 1.0090 1.0090
560.791241 1.0080 1.0080 1.0080 1.0080 1.0080
565.184443 1.0060 1.0060 1.0060 1.0060 1.0060
569.577645 1.0050 1.0050 1.0050 1.0040 1.0040
573.970846 1.0040 1.0040 1.0040 1.0040 1.0040
578.364048 1.0040 1.0040 1.0040 1.0040 1.0040
582.757249 1.0040 1.0040 1.0040 1.0050 1.0050
587.150451 1.0050 1.0040 1.0040 1.0050 1.0050
591.543653 1.0060 1.0060 1.0060 1.0060 1.0060
595.936854 1.0060 1.0060 1.0060 1.0060 1.0080
600.330056 1.0080 1.0080 1.0080 1.0080 1.0080
604.723257 1.0080 1.0080 1.0080 1.0090 1.0090
609.116459 1.0110 1.0110 1.0110 1.0120 1.0120
613.509660 1.0120 1.0120 1.0120 1.0120 1.0130
617.902862 1.0130 1.0130 1.0130 1.0130 1.0130
622.296064 1.0130 1.0130 1.0130 1.0130 1.0130
626.689265 1.0130 1.0130 1.0130 1.0130 1.0130
631.082467 1.0130 1.0130 1.0130 1.0130 1.0130
635.475668 1.0130 1.0130 1.0130 1.0130 1.0130
639.868870 1.0130 1.0130 1.0130 1.0130 1.0130
644.262072 1.0130 1.0130 1.0130 1.0130 1.0130
648.655273 1.0130 1.0120 1.0120 1.0120 1.0120
653.048475 1.0110 1.0110 1.0110 1.0080 1.0080
657.441676 1.0080 1.0080 1.0060 1.0060 1.0060
661.834878 1.0040 1.0040 1.0040 1.0020 1.0020
666.228080 1.0020 1.0020 1.0010 1.0010 1.0010
670.621281 1.0000 1.0000 1.0000 0.9980 0.9980
675.014483 0.9970 0.9950 0.9940 0.9930 0.9910
679.407684 0.9880 0.9870 0.9860 0.9830 0.9820
683.800886 0.9800 0.9790 0.9770 0.9750 0.9700
688.194088 0.9660 0.9590 0.9550 0.9510 0.9440
692.587289 0.9370 0.9340 0.9330 0.9210 0.9150
696.980491 0.9120 0.8970 0.8930 0.8810 0.8651
701.373692 0.8500 0.8360 0.8210 0.8130 0.7920
705.766894 0.7631 0.7411 0.7101 0.6801 0.6452
710.160096 0.6190 0.5979 0.5040 0.4490 0.3911
714.553297 0.3381 0.2831 0.2481 0.2181 0.1742
718.946499 0.1230 0.0670 0.0650 0.0670 0.0730
723.339700 0.0940 0.1249 0.1589 0.1889 0.2179
727.732902 0.2460 0.2510 0.2640 0.2820 0.3160
732.126103 0.3370 0.3490 0.3590 0.3700 0.3800
736.519305 0.3880 0.3990 0.4090 0.4260 0.4320
740.912507 0.4590 0.4790 0.5019 0.5439 0.5510
745.305708 0.5640 0.5750 0.5870 0.5890 0.5900
749.698910 0.5900 0.5890 0.5870 0.5850 0.5830
754.092111 0.5830 0.5860 0.5900 0.6040 0.6190
758.485313 0.6330 0.6440 0.6590 0.6759 0.6840
762.878515 0.6940 0.7130 0.7240 0.7270 0.7350
767.271716 0.7390 0.7410 0.7410 0.7380 0.7330
771.664918 0.7310 0.7280 0.7240 0.7170 0.7130
776.058119 0.7100 0.7100 0.7120 0.7150 0.7190
780.451321 0.7210 0.7350 0.7490 0.7590 0.7750
784.844523 0.7810 0.7950 0.7990 0.8130 0.8170
789.237724 0.8250 0.8340 0.8500 0.8600 0.8750
793.630926 0.8860 0.8970 0.9040 0.9120 0.9170
798.024127 0.9250 0.9330 0.9390 0.9460 0.9470
802.417329 0.9500 0.9520 0.9520 0.9520 0.9520
806.810531 0.9510 0.9500 0.9500 0.9480 0.9470
811.203732 0.9460 0.9440 0.9390 0.9340 0.9330
815.596934 0.9300 0.9260 0.9220 0.9140 0.9050
819.990135 0.8970 0.8930 0.8920 0.8820 0.8750
824.383337 0.8710 0.8560 0.8520 0.8490 0.8450
828.776539 0.8450 0.8450 0.8460 0.8460 0.8470
833.169740 0.8500 0.8520 0.8520 0.8520 0.8520
837.562942 0.8500 0.8470 0.8460 0.8450 0.8420
841.956143 0.8390 0.8340 0.8320 0.8310 0.8310
846.349345 0.8320 0.8350 0.8360 0.8420 0.8490
850.742546 0.8530 0.8640 0.8710 0.8750 0.8850
855.135748 0.8850 0.8860 0.8870 0.8870 0.8870
859.528950 0.8870 0.8870 0.8860 0.8860 0.8850
863.922151 0.8830 0.8820 0.8760 0.8640 0.8540
868.315353 0.8500 0.8350 0.8270 0.8170 0.8140
872.708554 0.8030 0.7990 0.7960 0.7950 0.7950
877.101756 0.7950 0.7950 0.7930 0.7880 0.7820
881.494958 0.7800 0.7690 0.7450 0.7390 0.7240
885.888159 0.7080 0.6920 0.6690 0.6470 0.6260
890.281361 0.6000 0.5731 0.5501 0.5490 0.5500
894.674562 0.5860 0.5850 0.6190 0.6250 0.6550
899.067764 0.6770 0.6950 0.7130 0.7280 0.7439
903.460966 0.7620 0.7800 0.7980 0.8140 0.8220
907.854167 0.8340 0.8500 0.8530 0.8570 0.8610
912.247369 0.8630 0.8640 0.8640 0.8640 0.8640
916.640570 0.8600 0.8530 0.8500 0.8460 0.8320
921.033772 0.8240 0.8180 0.8160 0.8070 0.8020
925.426974 0.7990 0.7990 0.8000 0.8030 0.8030
929.820175 0.8070 0.8090 0.8140 0.8210 0.8320
934.213377 0.8520 0.8540 0.8710 0.8720 0.8740
938.606578 0.8750 0.8760 0.8760 0.8750 0.8750
942.999780 0.8720 0.8690 0.8600 0.8520 0.8420
947.392981 0.8320 0.8270 0.8200 0.8170 0.8140
951.786183 0.8130 0.8110 0.8100 0.8070 0.8060
956.179385 0.8060 0.8040 0.8040 0.8030 0.7980
960.572586 0.7960 0.7950 0.7800 0.7750 0.7620
964.965788 0.7520 0.7490 0.7460 0.7450 0.7450
969.358989 0.7450 0.7440 0.7440 0.7450 0.7450
973.752191 0.7480 0.7490 0.7520 0.7570 0.7620
978.145393 0.7660 0.7710 0.7740 0.7750 0.7770
982.538594 0.7780 0.7780 0.7780 0.7780 0.7780
986.931796 0.7800 0.7810 0.7840 0.7860 0.7910
991.324997 0.7960 0.8110 0.8160 0.8310 0.8320
995.718199 0.8350 0.8420 0.8490 0.8520 0.8580
1000.111401 0.8640 0.8690 0.8720 0.8760 0.8810
1004.504602 0.8850 0.8870 0.8900 0.8900 0.8920
1008.897804 0.8920 0.8930 0.8930 0.8930 0.8930
1013.291005 0.8930 0.8930 0.8930 0.8930 0.8930
1017.684207 0.8930 0.8940 0.8940 0.8940 0.8940
1022.077409 0.8940 0.8940 0.8940 0.8930 0.8930
1026.470610 0.8930 0.8930 0.8920 0.8900 0.8860
1030.863812 0.8850 0.8830 0.8820 0.8760 0.8710
1035.257013 0.8610 0.8580 0.8530 0.8520 0.8450
1039.650215 0.8350 0.8310 0.8220 0.8140 0.8060
1044.043417 0.8040 0.8020 0.8020 0.8020 0.8020
1048.436618 0.8020 0.8020 0.8030 0.8030 0.8030
1052.829820 0.8030 0.8020 0.7990 0.7960 0.7960
1057.223021 0.7950 0.7950 0.7930 0.7930 0.7930
1061.616223 0.7920 0.7880 0.7860 0.7850 0.7850
1066.009424 0.7850 0.7840 0.7840 0.7820 0.7780
1070.402626 0.7750 0.7750 0.7630 0.7560 0.7440
1074.795828 0.7330 0.7260 0.7160 0.7100 0.7090
1079.189029 0.7080 0.7080 0.7060 0.7060 0.7050
1083.582231 0.6950 0.6940 0.6880 0.6840 0.6790
1087.975432 0.6770 0.6760 0.6770 0.6770 0.6830
1092.368634 0.6920 0.7060 0.7230 0.7419 0.7619
1096.761836 0.7930 0.8160 0.8490 0.8690 0.8780
1101.155037 0.8920 0.9010 0.9110 0.9150 0.9230
1105.548239 0.9250 0.9260 0.9260 0.9260 0.9260
1109.941440 0.9260 0.9260 0.9260 0.9260 0.9260
1114.334642 0.9260 0.9260 0.9260 0.9260 0.9230
1118.727844 0.9190 0.9140 0.9140 0.9120 0.9110
1123.121045 0.9030 0.8970 0.8930 0.8900 0.8740
1127.514247 0.8690 0.8500 0.8360 0.8310 0.8041
1131.907448 0.7780 0.7480 0.7260 0.7240 0.7230
1136.300650 0.7240 0.7260 0.7270 0.7350 0.7420
1140.693852 0.7560 0.7740 0.7780 0.7930 0.7990
1145.087053 0.8030 0.8070 0.8110 0.8140 0.8240
1149.480255 0.8320 0.8400 0.8490 0.8560 0.8640
1153.873456 0.8690 0.8740 0.8740 0.8740 0.8780
1158.266658 0.8790 0.8820 0.8830 0.8850 0.8850
1162.659859 0.8900 0.8900 0.8930 0.8930 0.8940
1167.053061 0.8990 0.9000 0.9000 0.9010 0.9010
1171.446263 0.9010 0.9000 0.8970 0.8930 0.8930
1175.839464 0.8900 0.8860 0.8830 0.8780 0.8710
1180.232666 0.8650 0.8600 0.8570 0.8540 0.8540
1184.625867 0.8530 0.8530 0.8530 0.8530 0.8530
1189.019069 0.8530 0.8530 0.8530 0.8530 0.8530
1193.412271 0.8530 0.8540 0.8570 0.8600 0.8610
1197.805472 0.8640 0.8690 0.8680 0.8690 0.8690
1202.198674 0.8690 0.8710 0.8710 0.8710 0.8710
1206.591875 0.8690 0.8680 0.8650 0.8630 0.8600
1210.985077 0.8560 0.8500 0.8490 0.8400 0.8340
1215.378279 0.8240 0.8170 0.8140 0.8140 0.8130
1219.771480 0.8130 0.8130 0.8140 0.8170 0.8280
1224.164682 0.8320 0.8360 0.8450 0.8490 0.8520
1228.557883 0.8530 0.8530 0.8530 0.8530 0.8520
1232.951085 0.8500 0.8490 0.8490 0.8450 0.8420
1237.344287 0.8350 0.8310 0.8250 0.8210 0.8170
1241.737488 0.8110 0.8000 0.7960 0.7950 0.7930
1246.130690 0.7810 0.7690 0.7600 0.7570 0.7530
1250.523891 0.7480 0.7420 0.7390 0.7300 0.7260
1254.917093 0.7230 0.7150 0.7080 0.7080 0.7040
1259.310295 0.7020 0.7020 0.7040 0.7100 0.7150
1263.703496 0.7170 0.7200 0.7200 0.7240 0.7330
1268.096698 0.7350 0.7380 0.7380 0.7380 0.7370
1272.489899 0.7370 0.7350 0.7310 0.7230 0.7090
1276.883101 0.6970 0.6900 0.6760 0.6610 0.6580
1281.276302 0.6300 0.6290 0.6180 0.6160 0.6150
1285.669504 0.6140 0.6030 0.6000 0.5890 0.5750
1290.062706 0.5710 0.5680 0.5650 0.5640 0.5640
1294.455907 0.5620 0.5620 0.5620 0.5620 0.5610
1298.849109 0.5500 0.5360 0.5240 0.5150 0.5130
1303.242310 0.5070 0.4960 0.4950 0.4950 0.4960
1307.635512 0.4990 0.5060 0.5140 0.5220 0.5310
1312.028714 0.5350 0.5490 0.5500 0.5640 0.5760
1316.421915 0.5910 0.6040 0.6290 0.6330 0.6450
1320.815117 0.6520 0.6590 0.6620 0.6650 0.6660
1325.208318 0.6680 0.6690 0.6690 0.6690 0.6680
1329.601520 0.6620 0.6590 0.6450 0.6151 0.5970
1333.994722 0.5819 0.5640 0.5490 0.5350 0.5240
1338.387923 0.5130 0.5030 0.4950 0.4551 0.3782
1342.781125 0.3620 0.3630 0.3830 0.3960 0.4010
1347.174326 0.4340 0.4520 0.4710 0.4730 0.4740
1351.567528 0.4710 0.4640 0.4570 0.4460 0.4460
1355.960730 0.4450 0.4450 0.4450 0.4450 0.4430
1360.353931 0.4430 0.4340 0.4240 0.4170 0.4010
1364.747133 0.3870 0.3620 0.3360 0.3200 0.3040
1369.140334 0.2869 0.2509 0.2240 0.2030 0.1830
1373.533536 0.1640 0.1410 0.1030 0.0731 0.0411
1377.926737 0.0290 0.0150 0.0120 0.0110 0.0120
1382.319939 0.0150 0.0220 0.0330 0.0620 0.1209
1386.713141 0.1631 0.2131 0.2530 0.2820 0.3270
1391.106342 0.3600 0.3920 0.4160 0.4270 0.4450
1395.499544 0.4591 0.4771 0.4990 0.5100 0.5220
1399.892745 0.5290 0.5350 0.5360 0.5360 0.5360
1404.285947 0.5350 0.5350 0.5350 0.5350 0.5330
1408.679149 0.5320 0.5320 0.5310 0.5260 0.5250
1413.072350 0.5220 0.5140 0.5130 0.5100 0.5000
1417.465552 0.4990 0.4880 0.4790 0.4770 0.4561
1421.858753 0.4480 0.4410 0.4340 0.4240 0.4050
1426.251955 0.3850 0.3700 0.3600 0.3410 0.3300
1430.645157 0.3068 0.2419 0.2190 0.2100 0.2010
1435.038358 0.1780 0.1530 0.1270 0.1060 0.0780
1439.431560 0.0660 0.0550 0.0480 0.0400 0.0340
1443.824761 0.0300 0.0270 0.0200 0.0160 0.0130
1448.217963 0.0120 0.0110 0.0110 0.0090 0.0080
1452.611165 0.0080 0.0080 0.0080 0.0080 0.0080
1457.004366 0.0080 0.0080 0.0080 0.0080 0.0060
1461.397568 0.0060 0.0060 0.0080 0.0080 0.0080
1465.790769 0.0080 0.0080 0.0080 0.0080 0.0080
1470.183971 0.0080 0.0080 0.0080 0.0090 0.0090
1474.577173 0.0110 0.0170 0.0230 0.0290 0.0300
1478.970374 0.0400 0.0770 0.1160 0.1410 0.2059
1483.363576 0.2151 0.2350 0.2551 0.2860 0.3150
1487.756777 0.3290 0.3430 0.3600 0.3870 0.4030
1492.149979 0.4141 0.4500 0.4570 0.4750 0.4860
1496.543180 0.4990 0.5100 0.5180 0.5350 0.5470
1500.936382 0.5530 0.5650 0.5690 0.5720 0.5860
1505.329584 0.5900 0.6140 0.6150 0.6210 0.6300
1509.722785 0.6370 0.6430 0.6440 0.6450 0.6470
1514.115987 0.6470 0.6470 0.6470 0.6470 0.6450
1518.509188 0.6440 0.6430 0.6410 0.6390 0.6340
1522.902390 0.6320 0.6250 0.6180 0.6140 0.6050
1527.295592 0.6000 0.5970 0.5980 0.6070 0.6450
1531.688793 0.6760 0.6900 0.7210 0.7420 0.7590
1536.081995 0.7740 0.7800 0.7930 0.7950 0.7960
1540.475196 0.7980 0.8100 0.8130 0.8310 0.8310
1544.868398 0.8320 0.8340 0.8340 0.8400 0.8420
1549.261600 0.8490 0.8490 0.8500 0.8540 0.8580
1553.654801 0.8640 0.8670 0.8690 0.8710 0.8720
1558.048003 0.8740 0.8790 0.8820 0.8850 0.8860
1562.441204 0.8890 0.8890 0.8890 0.8900 0.8900
1566.834406 0.8900 0.8900 0.8920 0.8920 0.8920
1571.227608 0.8920 0.8930 0.8940 0.8960 0.8970
1575.620809 0.8990 0.9000 0.9030 0.9040 0.9050
1580.014011 0.9070 0.9080 0.9100 0.9110 0.9120
1584.407212 0.9120 0.9140 0.9140 0.9140 0.9140
1588.800414 0.9150 0.9180 0.9190 0.9210 0.9210
1593.193616 0.9230 0.9250 0.9250 0.9250 0.9230
1597.586817 0.9230 0.9230 0.9230 0.9230 0.9230
1601.980019 0.9230 0.9230 0.9230 0.9230 0.9230
1606.373220 0.9230 0.9230 0.9230 0.9230 0.9250
1610.766422 0.9250 0.9250 0.9250 0.9250 0.9250
1615.159623 0.9250 0.9250 0.9250 0.9250 0.9250
1619.552825 0.9250 0.9250 0.9250 0.9260 0.9250
1623.946027 0.9250 0.9250 0.9250 0.9250 0.9250
1628.339228 0.9260 0.9260 0.9260 0.9260 0.9280
1632.732430 0.9280 0.9300 0.9300 0.9300 0.9300
1637.125631 0.9300 0.9320 0.9320 0.9320 0.9320
1641.518833 0.9320 0.9330 0.9340 0.9340 0.9340
1645.912035 0.9340 0.9390 0.9400 0.9400 0.9410
1650.305236 0.9410 0.9430 0.9440 0.9460 0.9460
1654.698438 0.9460 0.9460 0.9460 0.9460 0.9460
1659.091639 0.9460 0.9460 0.9460 0.9460 0.9460
1663.484841 0.9460 0.9460 0.9460 0.9460 0.9460
1667.878043 0.9460 0.9460 0.9460 0.9460 0.9460
1672.271244 0.9460 0.9460 0.9460 0.9460 0.9460
1676.664446 0.9460 0.9460 0.9460 0.9460 0.9460
1681.057647 0.9460 0.9470 0.9470 0.9470 0.9470
1685.450849 0.9470 0.9470 0.9470 0.9470 0.9470
1689.844051 0.9470 0.9470 0.9480 0.9500 0.9500
1694.237252 0.9500 0.9520 0.9540 0.9540 0.9540
1698.630454 0.9540 0.9550 0.9550 0.9580 0.9590
1703.023655 0.9610 0.9610 0.9610 0.9620 0.9640
1707.416857 0.9640 0.9650 0.9660 0.9660 0.9680
1711.810058 0.9680 0.9690 0.9690 0.9700 0.9700
1716.203260 0.9700 0.9700 0.9720 0.9720 0.9720
1720.596462 0.9720 0.9720 0.9720 0.9720 0.9720
1724.989663 0.9720 0.9720 0.9720 0.9720 0.9720
1729.382865 0.9730 0.9730 0.9730 0.9730 0.9730
1733.776066 0.9730 0.9730 0.9730 0.9750 0.9750
1738.169268 0.9760 0.9760 0.9770 0.9790 0.9790
1742.562470 0.9800 0.9830 0.9840 0.9860 0.9880
1746.955671 0.9880 0.9900 0.9910 0.9930 0.9950
1751.348873 0.9950 0.9970 0.9980 0.9980 0.9980
1755.742074 0.9980 1.0000 1.0000 1.0000 1.0000
1760.135276 1.0000 1.0010 1.0010 1.0010 1.0010
1764.528478 1.0010 1.0020 1.0040 1.0040 1.0020
1768.921679 1.0040 1.0040 1.0040 1.0040 1.0040
1773.314881 1.0040 1.0040 1.0040 1.0040 1.0040
1777.708082 1.0040 1.0040 1.0040 1.0040 1.0040
1782.101284 1.0040 1.0040 1.0040 1.0040 1.0040
1786.494486 1.0040 1.0040 1.0040 1.0040 1.0040
1790.887687 1.0040 1.0040 1.0040 1.0040 1.0040
1795.280889 1.0040 1.0050 1.0050 1.0040 1.0040
1799.674090 1.0040 1.0040 1.0040 1.0040 1.0040
1804.067292 1.0040 1.0040 1.0040 1.0040 1.0040
1808.460494 1.0040 1.0040 1.0040 1.0040 1.0050
1812.853695 1.0050 1.0050 1.0050 1.0060 1.0060
1817.246897 1.0060 1.0060 1.0060 1.0080 1.0060
1821.640098 1.0060 1.0060 1.0060 1.0060 1.0060
1826.033300 1.0060 1.0060 1.0060 1.0060 1.0060
1830.426501 1.0060 1.0060 1.0080 1.0060 1.0060
1834.819703 1.0060 1.0060 1.0060 1.0060 1.0060
1839.212905 1.0060 1.0060 1.0060 1.0060 1.0050
1843.606106 1.0050 1.0050 1.0050 1.0040 1.0040
1847.999308 1.0040 1.0040 1.0020 1.0020 1.0020
1852.392509 1.0020 1.0010 1.0010 1.0010 1.0010
1856.785711 1.0010 1.0010 1.0000 1.0000 1.0000
1861.178913 1.0000 1.0000 1.0000 0.9980 0.9980
1865.572114 0.9980 0.9980 0.9980 0.9980 0.9970
1869.965316 0.9970 0.9970 0.9970 0.9970 0.9970
1874.358517 0.9970 0.9970 0.9970 0.9970 0.9970
1878.751719 0.9970 0.9980 0.9980 0.9980 0.9980
1883.144921 0.9980 0.9980 0.9980 0.9980 0.9980
1887.538122 0.9980 0.9980 1.0000 1.0000 1.0000
1891.931324 1.0000 1.0000 1.0000 1.0000 1.0000
1896.324525 1.0000 1.0000 1.0000 1.0000 1.0000
1900.717727 1.0000 1.0000 1.0000 1.0000 1.0000
1905.110929 1.0000 1.0010 1.0000 1.0000 1.0000
1909.504130 1.0000 1.0000 1.0000 1.0000 1.0000
1913.897332 1.0000 1.0000 1.0000 1.0000 1.0000
1918.290533 1.0000 1.0000 1.0000 1.0000 1.0000
1922.683735 1.0010 1.0010 1.0010 1.0020 1.0020
1927.076936 1.0010 1.0010 1.0010 1.0010 1.0010
1931.470138 1.0010 1.0010 1.0010 1.0010 1.0010
1935.863340 1.0010 1.0010 1.0010 1.0010 1.0010
1940.256541 1.0010 1.0010 1.0010 1.0010 1.0010
1944.649743 1.0010 1.0010 1.0010 1.0010 1.0000
1949.042944 1.0000 1.0000 1.0000 0.9980 0.9980
1953.436146 0.9980 0.9980 0.9980 0.9980 0.9980
1957.829348 0.9970 0.9970 0.9950 0.9970 0.9970
1962.222549 1.0000 1.0010 1.0010 1.0010 1.0010
1966.615751 1.0010 1.0020 1.0020 1.0020 1.0020
1971.008952 1.0020 1.0020 1.0020 1.0020 1.0020
1975.402154 1.0020 1.0020 1.0020 1.0020 1.0020
1979.795356 1.0020 1.0020 1.0010 1.0020 1.0040
1984.188557 1.0020 1.0020 1.0020 1.0010 1.0010
1988.581759 1.0010 1.0000 1.0000 1.0000 0.9980
1992.974960 0.9980 0.9970 0.9970 0.9970 0.9950
1997.368162 0.9950 0.9950 0.9940 0.9940 0.9935
2001.761364 0.9930 0.9920 0.9910 0.9905 0.9900
2006.154565 0.9890 0.9880 0.9870 0.9860 0.9840
2010.547767 0.9820 0.9776 0.9731 0.9710 0.9690
2014.940968 0.9656 0.9621 0.9600 0.9580 0.9565
2019.334170 0.9550 0.9545 0.9540 0.9540 0.9540
2023.727372 0.9545 0.9550 0.9560 0.9570 0.9570
2028.120573 0.9570 0.9580 0.9590 0.9600 0.9610
2032.513775 0.9615 0.9620 0.9630 0.9640 0.9645
2036.906976 0.9650 0.9650 0.9650 0.9665 0.9680
2041.300178 0.9685 0.9690 0.9695 0.9700 0.9700
2045.693379 0.9700 0.9714 0.9729 0.9740 0.9750
2050.086581 0.9750 0.9750 0.9750 0.9750 0.9755
2054.479783 0.9760 0.9760 0.9760 0.9765 0.9770
2058.872984 0.9780 0.9790 0.9790 0.9790 0.9804
2063.266186 0.9819 0.9830 0.9840 0.9840 0.9840
2067.659387 0.9849 0.9859 0.9865 0.9870 0.9870
2072.052589 0.9870 0.9875 0.9880 0.9880 0.9880
2076.445791 0.9880 0.9880 0.9880 0.9880 0.9889
2080.838992 0.9899 0.9900 0.9900 0.9900 0.9900
2085.232194 0.9900 0.9900 0.9900 0.9900 0.9900
2089.625395 0.9900 0.9900 0.9900 0.9900 0.9900
2094.018597 0.9891 0.9881 0.9880 0.9880 0.9875
2098.411799 0.9870 0.9870 0.9870 0.9870 0.9870
2102.805000 0.9870 0.9870 0.9870 0.9870 0.9870
2107.198202 0.9870 0.9870 0.9870 0.9870 0.9870
2111.591403 0.9870 0.9870 0.9870 0.9870 0.9865
2115.984605 0.9860 0.9860 0.9860 0.9860 0.9860
2120.377807 0.9860 0.9860 0.9851 0.9841 0.9835
2124.771008 0.9830 0.9825 0.9820 0.9806 0.9791
2129.164210 0.9790 0.9790 0.9776 0.9761 0.9746
2133.557411 0.9731 0.9730 0.9730 0.9725 0.9720
2137.950613 0.9706 0.9691 0.9676 0.9661 0.9655
2142.343814 0.9650 0.9623 0.9593 0.9581 0.9571
2146.737016 0.9570 0.9570 0.9561 0.9551 0.9546
2151.130218 0.9540 0.9531 0.9521 0.9516 0.9511
2155.523419 0.9506 0.9501 0.9500 0.9500 0.9500
2159.916621 0.9500 0.9500 0.9500 0.9500 0.9500
2164.309822 0.9500 0.9500 0.9500 0.9500 0.9500
2168.703024 0.9500 0.9500 0.9500 0.9500 0.9500
2173.096226 0.9500 0.9500 0.9500 0.9500 0.9500
2177.489427 0.9500 0.9500 0.9500 0.9500 0.9500
2181.882629 0.9500 0.9500 0.9491 0.9481 0.9480
2186.275830 0.9480 0.9480 0.9480 0.9480 0.9480
2190.669032 0.9480 0.9480 0.9480 0.9480 0.9476
2195.062234 0.9471 0.9470 0.9470 0.9470 0.9470
2199.455435 0.9470 0.9470 0.9470 0.9470 0.9470
2203.848637 0.9470 0.9470 0.9470 0.9470 0.9470
2208.241838 0.9470 0.9470 0.9470 0.9470 0.9470
2212.635040 0.9470 0.9470 0.9470 0.9470 0.9470
2217.028242 0.9470 0.9470 0.9470 0.9470 0.9470
2221.421443 0.9470 0.9470 0.9470 0.9470 0.9470
2225.814645 0.9470 0.9470 0.9470 0.9470 0.9470
2230.207846 0.9470 0.9466 0.9461 0.9460 0.9460
2234.601048 0.9451 0.9442 0.9440 0.9440 0.9440
2238.994250 0.9440 0.9436 0.9431 0.9430 0.9430
2243.387451 0.9422 0.9412 0.9410 0.9410 0.9410
2247.780653 0.9410 0.9410 0.9410 0.9406 0.9401
2252.173854 0.9396 0.9391 0.9382 0.9372 0.9366
2256.567056 0.9361 0.9360 0.9360 0.9360 0.9360
2260.960257 0.9352 0.9342 0.9340 0.9340 0.9340
2265.353459 0.9340 0.9340 0.9340 0.9340 0.9340
2269.746661 0.9340 0.9340 0.9336 0.9331 0.9330
2274.139862 0.9330 0.9330 0.9330 0.9330 0.9330
2278.533064 0.9330 0.9330 0.9326 0.9321 0.9320
2282.926265 0.9320 0.9320 0.9320 0.9320 0.9320
2287.319467 0.9320 0.9320 0.9324 0.9329 0.9326
2291.712669 0.9321 0.9320 0.9320 0.9312 0.9302
2296.105870 0.9300 0.9300 0.9300 0.9300 0.9296
2300.499072 0.9291 0.9286 0.9281 0.9280 0.9280
2304.892273 0.9272 0.9262 0.9256 0.9251 0.9242
2309.285475 0.9232 0.9230 0.9230 0.9226 0.9221
2313.678677 0.9216 0.9211 0.9202 0.9192 0.9190
2318.071878 0.9190 0.9186 0.9181 0.9180 0.9180
2322.465080 0.9180 0.9180 0.9176 0.9171 0.9162
2326.858281 0.9152 0.9146 0.9141 0.9140 0.9140
2331.251483 0.9140 0.9140 0.9132 0.9122 0.9120
2335.644685 0.9120 0.9120 0.9120 0.9116 0.9111
2340.037886 0.9110 0.9110 0.9106 0.9101 0.9100
2344.431088 0.9100 0.9092 0.9082 0.9080 0.9080
2348.824289 0.9080 0.9080 0.9088 0.9098 0.9104
2353.217491 0.9109 0.9110 0.9110 0.9110 0.9110
2357.610693 0.9114 0.9119 0.9120 0.9120 0.9139
2362.003894 0.9164 0.9185 0.9205 0.9218 0.9228
2366.397096 0.9241 0.9256 0.9260 0.9260 0.9268
2370.790297 0.9278 0.9272 0.9262 0.9256 0.9251
2375.183499 0.9239 0.9224 0.9216 0.9211 0.9210
2379.576700 0.9210 0.9210 0.9210 0.9210 0.9210
2383.969902 0.9210 0.9210 0.9210 0.9210 0.9210
2388.363104 0.9210 0.9210 0.9210 0.9210 0.9210
2392.756305 0.9210 0.9210 0.9210 0.9210 0.9210
2397.149507 0.9210 0.9210 0.9210 0.9210 0.9210
2401.542708 0.9210 0.9210 0.9210 0.9210 0.9210
2405.935910 0.9210 0.9210 0.9210 0.9210 0.9210
2410.329112 0.9210 0.9210 0.9210 0.9210 0.9210
2414.722313 0.9210 0.9210 0.9210 0.9210 0.9210
2419.115515 0.9210 0.9210 0.9214 0.9219 0.9224
2423.508716 0.9229 0.9230 0.9230 0.9241 0.9256
2427.901918 0.9267 0.9277 0.9287 0.9297 0.9300
2432.295120 0.9300 0.9311 0.9326 0.9330 0.9330
2436.688321 0.9334 0.9339 0.9362 0.9392 0.9422
2441.081523 0.9452 0.9467 0.9477 0.9487 0.9497
2445.474724 0.9504 0.9509 0.9514 0.9519 0.9520
2449.867926 0.9520 0.9520 0.9520 0.9527 0.9537
2454.261128 0.9540 0.9540 0.9544 0.9549 0.9550
2458.654329 0.9550 0.9550 0.9550 0.9550 0.9550
2463.047531 0.9550 0.9550 0.9550 0.9550 0.9550
2467.440732 0.9550 0.9550 0.9550 0.9550 0.9550
2471.833934 0.9550 0.9550 0.9550 0.9550 0.9550
2476.227135 0.9550 0.9546 0.9541 0.9540 0.9540
2480.620337 0.9533 0.9523 0.9517 0.9512 0.9507
2485.013539 0.9502 0.9490 0.9475 0.9467 0.9462
2489.406740 0.9450 0.9435 0.9399 0.9354 0.9326
2493.799942 0.9306 0.9297 0.9292 0.9287 0.9282
2498.193143 0.9273 0.9263 0.9257 0.9252 0.9236
2502.586345 0.9216 0.9196 0.9176 0.9163 0.9153
2506.979547 0.9140 0.9125 0.9117 0.9112 0.9086
2511.372748 0.9051 0.9026 0.9006 0.8976 0.8941
2515.765950 0.8927 0.8922 0.8920 0.8920 0.8913
2520.159151 0.8903 0.8897 0.8892 0.8883 0.8873
2524.552353 0.8867 0.8862 0.8857 0.8852 0.8843
2528.945555 0.8833 0.8827 0.8822 0.8807 0.8787
2533.338756 0.8773 0.8763 0.8757 0.8752 0.8740
2537.731958 0.8725 0.8720 0.8720 0.8717 0.8712
2542.125159 0.8700 0.8685 0.8667 0.8647 0.8630
2546.518361 0.8615 0.8607 0.8602 0.8590 0.8575
2550.911563 0.8547 0.8512 0.8497 0.8492 0.8484
2555.304764 0.8474 0.8467 0.8462 0.8457 0.8452
2559.697966 0.8440 0.8425 0.8410 0.8395 0.8374
2564.091167 0.8349 0.8333 0.8324 0.8317 0.8312
2568.484369 0.8304 0.8294 0.8264 0.8224 0.8188
2572.877571 0.8153 0.8127 0.8107 0.8056 0.7986
2577.270772 0.7951 0.7936 0.7873 0.7782 0.7715
2581.663974 0.7660 0.7614 0.7574 0.7515 0.7446
2586.057175 0.7417 0.7412 0.7404 0.7394 0.7377
2590.450377 0.7357 0.7325 0.7285 0.7261 0.7246
2594.843578 0.7240 0.7240 0.7228 0.7207 0.7184
2599.236780 0.7159 0.7131 0.7101 0.7077 0.7058
2603.629982 0.7025 0.6985 0.6961 0.6946 0.6928
2608.023183 0.6908 0.6888 0.6868 0.6854 0.6844
2612.416385 0.6831 0.6816 0.6807 0.6802 0.6800
2616.809586 0.6800 0.6800 0.6800 0.6797 0.6792
2621.202788 0.6790 0.6790 0.6790 0.6790 0.6790
2625.595990 0.6790 0.6790 0.6790 0.6790 0.6790
2629.989191 0.6784 0.6774 0.6770 0.6770 0.6767
2634.382393 0.6762 0.6751 0.6736 0.6697 0.6642
2638.775594 0.6587 0.6532 0.6489 0.6454 0.6395
2643.168796 0.6321 0.6257 0.6203 0.6162 0.6132
2647.561998 0.6105 0.6080 0.6049 0.6014 0.5973
2651.955199 0.5928 0.5895 0.5870 0.5842 0.5812
2656.348401 0.5794 0.5784 0.5771 0.5756 0.5709
2660.741602 0.5639 0.5561 0.5476 0.5388 0.5298
2665.134804 0.5237 0.5197 0.5171 0.5156 0.5144
2669.528006 0.5134 0.5133 0.5138 0.5169 0.5219
2673.921207 0.5254 0.5279 0.5310 0.5345 0.5383
2678.314409 0.5423 0.5446 0.5456 0.5494 0.5554
2682.707610 0.5591 0.5611 0.5648 0.5699 0.5729
2687.100812 0.5744 0.5782 0.5837 0.5909 0.5993
2691.494013 0.6053 0.6093 0.6113 0.6118 0.6126
2695.887215 0.6136 0.6143 0.6148 0.6150 0.6150
2700.280417 0.6147 0.6142 0.6134 0.6124 0.6112
2704.673618 0.6097 0.6084 0.6074 0.6042 0.5992
2709.066820 0.5942 0.5892 0.5845 0.5800 0.5763
2713.460021 0.5734 0.5690 0.5635 0.5569 0.5494
2717.853223 0.5430 0.5375 0.5315 0.5249 0.5195
2722.246425 0.5150 0.5094 0.5029 0.4940 0.4830
2726.639626 0.4624 0.4340 0.4191 0.4156 0.4137
2731.032828 0.4132 0.4133 0.4138 0.4172 0.4232
2735.426029 0.4366 0.4566 0.4679 0.4714 0.4804
2739.819231 0.4938 0.5035 0.5100 0.5152 0.5192
2744.212433 0.5213 0.5218 0.5220 0.5220 0.5225
2748.605634 0.5235 0.5240 0.5240 0.5240 0.5240
2752.998836 0.5235 0.5225 0.5217 0.5212 0.5207
2757.392037 0.5202 0.5195 0.5185 0.5169 0.5149
2761.785239 0.5130 0.5110 0.5090 0.5070 0.5044
2766.178441 0.5014 0.4997 0.4992 0.4964 0.4914
2770.571642 0.4859 0.4800 0.4729 0.4648 0.4568
2774.964844 0.4488 0.4424 0.4374 0.4296 0.4191
2779.358045 0.4071 0.3936 0.3824 0.3734 0.3629
2783.751247 0.3509 0.3427 0.3382 0.3315 0.3225
2788.144449 0.3130 0.3030 0.2945 0.2874 0.2799
2792.537650 0.2719 0.2662 0.2627 0.2565 0.2475
2796.930852 0.2375 0.2265 0.2158 0.2053 0.1911
2801.324053 0.1731 0.1588 0.1483 0.1401 0.1341
2805.717255 0.1293 0.1258 0.1225 0.1195 0.1135
2810.110456 0.1045 0.0953 0.0858 0.0803 0.0788
2814.503658 0.0775 0.0765 0.0721 0.0641 0.0554
2818.896860 0.0459 0.0400 0.0380 0.0363 0.0348
2823.290061 0.0330 0.0311 0.0276 0.0226 0.0173
2827.683263 0.0118 0.0068 0.0023 0.0000 0.0000
2832.076464 0.0000 0.0000 0.0000 0.0000 0.0000
2836.469666 0.0000 0.0000 0.0000 0.0000 0.0000
2840.862868 0.0000 0.0000 0.0000 0.0000 0.0000
2845.256069 0.0000 0.0000 0.0000 0.0000 0.0000
2849.649271 0.0000 0.0000 0.0000 0.0000 0.0000
2854.042472 0.0000 0.0000 0.0000 0.0000 0.0000
2858.435674 0.0000 0.0000 0.0000 0.0000 0.0000
2862.828876 0.0000 0.0000 0.0000 0.0000 0.0000
2867.222077 0.0000 0.0000 0.0000 0.0000 0.0000
2871.615279 0.0000 0.0000 0.0000 0.0000 0.0000
2876.008480 0.0000 0.0000 0.0000 0.0000 0.0000
2880.401682 0.0000 0.0000 0.0000 0.0000 0.0000
2884.794884 0.0000 0.0000 0.0000 0.0000 0.0000
2889.188085 0.0000 0.0000 0.0000 0.0000 0.0000
2893.581287 0.0000 0.0000 0.0000 0.0000 0.0000
2897.974488 0.0000 0.0000 0.0000 0.0002 0.0007
2902.367690 0.0010 0.0010 0.0010 0.0010 0.0010
2906.760892 0.0010 0.0010 0.0010 0.0010 0.0010
2911.154093 0.0010 0.0010 0.0010 0.0010 0.0010
2915.547295 0.0010 0.0010 0.0010 0.0010 0.0010
2919.940496 0.0010 0.0010 0.0010 0.0010 0.0010
2924.333698 0.0010 0.0010 0.0010 0.0010 0.0010
2928.726899 0.0010 0.0010 0.0010 0.0010 0.0010
2933.120101 0.0010 0.0010 0.0010 0.0012 0.0017
2937.513303 0.0020 0.0020 0.0020 0.0020 0.0020
2941.906504 0.0020 0.0024 0.0034 0.0040 0.0040
2946.299706 0.0040 0.0040 0.0040 0.0040 0.0040
2950.692907 0.0040 0.0040 0.0040 0.0040 0.0040
2955.086109 0.0042 0.0047 0.0050 0.0050 0.0050
2959.479311 0.0050 0.0050 0.0050 0.0052 0.0057
2963.872512 0.0060 0.0060 0.0064 0.0074 0.0080
2968.265714 0.0080 0.0080 0.0080 0.0080 0.0080
2972.658915 0.0082 0.0087 0.0090 0.0090 0.0090
2977.052117 0.0090 0.0090 0.0090 0.0094 0.0104
2981.445319 0.0112 0.0117 0.0126 0.0141 0.0158
2985.838520 0.0178 0.0198 0.0218 0.0253 0.0313
2990.231722 0.0363 0.0398 0.0426 0.0441 0.0458
2994.624923 0.0478 0.0503 0.0538 0.0586 0.0656
2999.018125 0.0735 0.0830 0.0921 0.1007 0.1096
3003.411327 0.1191 0.1271 0.1326 0.1399 0.1504
3007.804528 0.1596 0.1666 0.1754 0.1874 0.2018
3012.197730 0.2202 0.2329 0.2354 0.2381 0.2411
3016.590931 0.2448 0.2498 0.2557 0.2632 0.2708
3020.984133 0.2783 0.2876 0.3001 0.3118 0.3223
3025.377334 0.3304 0.3344 0.3397 0.3472 0.3532
3029.770536 0.3567 0.3639 0.3779 0.3886 0.3931
3034.163738 0.3976 0.4020 0.4071 0.4131 0.4200
3038.556939 0.4285 0.4360 0.4414 0.4487 0.4592
3042.950141 0.4679 0.4734 0.4791 0.4851 0.4909
3047.343342 0.4964 0.5017 0.5067 0.5120 0.5180
3051.736544 0.5250 0.5340 0.5412 0.5447 0.5493
3056.129746 0.5558 0.5603 0.5613 0.5637 0.5687
3060.522947 0.5744 0.5814 0.5895 0.6000 0.6083
3064.916149 0.6123 0.6157 0.6177 0.6206 0.6256
3069.309350 0.6296 0.6316 0.6349 0.6410 0.6472
3073.702552 0.6537 0.6585 0.6600 0.6631 0.6696
3078.095754 0.6751 0.6786 0.6826 0.6876 0.6916
3082.488955 0.6936 0.6967 0.7022 0.7063 0.7073
3086.882157 0.7086 0.7106 0.7134 0.7179 0.7215
3091.275358 0.7230 0.7251 0.7286 0.7321 0.7356
3095.668560 0.7385 0.7400 0.7415 0.7430 0.7448
3100.061762 0.7473 0.7501 0.7536 0.7572 0.7612
3104.454963 0.7643 0.7653 0.7665 0.7680 0.7693
3108.848165 0.7703 0.7716 0.7736 0.7753 0.7763
3113.241366 0.7778 0.7803 0.7823 0.7833 0.7842
3117.634568 0.7846 0.7854 0.7869 0.7881 0.7886
3122.027770 0.7893 0.7903 0.7910 0.7910 0.7910
3126.420971 0.7910 0.7910 0.7910 0.7910 0.7910
3130.814173 0.7910 0.7910 0.7910 0.7910 0.7910
3135.207374 0.7910 0.7910 0.7910 0.7910 0.7910
3139.600576 0.7910 0.7910 0.7910 0.7910 0.7910
3143.993777 0.7910 0.7910 0.7910 0.7910 0.7910
3148.386979 0.7910 0.7910 0.7910 0.7910 0.7910
3152.780181 0.7910 0.7910 0.7910 0.7910 0.7910
3157.173382 0.7910 0.7910 0.7910 0.7910 0.7910
3161.566584 0.7910 0.7910 0.7910 0.7910 0.7910
3165.959785 0.7910 0.7910 0.7910 0.7910 0.7911
3170.352987 0.7916 0.7920 0.7920 0.7920 0.7920
3174.746189 0.7920 0.7920 0.7921 0.7926 0.7930
3179.139390 0.7930 0.7930 0.7930 0.7930 0.7930
3183.532592 0.7933 0.7943 0.7951 0.7956 0.7963
3187.925793 0.7973 0.7981 0.7986 0.7994 0.8009
3192.318995 0.8025 0.8045 0.8065 0.8085 0.8105
3196.712197 0.8125 0.8148 0.8178 0.8206 0.8231
3201.105398 0.8258 0.8288 0.8321 0.8366 0.8411
3205.498600 0.8456 0.8500 0.8540 0.8574 0.8589
3209.891801 0.8609 0.8649 0.8684 0.8699 0.8732
3214.285003 0.8822 0.8890 0.8890 0.8891 0.8896
3218.678205 0.8907 0.8937 0.8973 0.9028 0.9075
3223.071406 0.9095 0.9113 0.9128 0.9140 0.9140
3227.464608 0.9145 0.9164 0.9183 0.9198 0.9212
3231.857809 0.9222 0.9237 0.9267 0.9290 0.9290
3236.251011 0.9291 0.9296 0.9302 0.9312 0.9321
3240.644212 0.9326 0.9331 0.9336 0.9347 0.9376
3245.037414 0.9401 0.9406 0.9410 0.9410 0.9412
3249.430616 0.9422 0.9433 0.9448 0.9460 0.9460
3253.823817 0.9461 0.9466 0.9471 0.9476 0.9482
3258.217019 0.9492 0.9501 0.9506 0.9510 0.9510
3262.610220 0.9510 0.9510 0.9510 0.9510 0.9511
3267.003422 0.9516 0.9520 0.9520 0.9520 0.9520
3271.396624 0.9520 0.9520 0.9520 0.9520 0.9520
3275.789825 0.9520 0.9520 0.9520 0.9520 0.9520
3280.183027 0.9520 0.9520 0.9520 0.9520 0.9520
3284.576228 0.9520 0.9520 0.9520 0.9520 0.9520
3288.969430 0.9520 0.9520 0.9519 0.9514 0.9510
3293.362632 0.9510 0.9510 0.9510 0.9510 0.9510
3297.755833 0.9510 0.9510 0.9510 0.9510 0.9510
3302.149035 0.9510 0.9510 0.9510 0.9510 0.9510
3306.542236 0.9510 0.9510 0.9509 0.9504 0.9500
3310.935438 0.9500 0.9500 0.9500 0.9500 0.9500
3315.328640 0.9500 0.9500 0.9500 0.9500 0.9500
3319.721841 0.9500 0.9500 0.9500 0.9500 0.9500
3324.115043 0.9500 0.9500 0.9500 0.9500 0.9498
3328.508244 0.9488 0.9480 0.9480 0.9480 0.9480
3332.901446 0.9480 0.9480 0.9479 0.9474 0.9470
3337.294648 0.9470 0.9470 0.9470 0.9470 0.9470
3341.687849 0.9470 0.9470 0.9470 0.9470 0.9470
3346.081051 0.9470 0.9470 0.9470 0.9470 0.9470
3350.474252 0.9470 0.9470 0.9470 0.9470 0.9470
3354.867454 0.9470 0.9470 0.9470 0.9470 0.9470
3359.260655 0.9470 0.9470 0.9470 0.9470 0.9470
3363.653857 0.9470 0.9470 0.9470 0.9470 0.9470
3368.047059 0.9470 0.9470 0.9470 0.9470 0.9470
3372.440260 0.9470 0.9470 0.9470 0.9471 0.9476
3376.833462 0.9480 0.9480 0.9480 0.9480 0.9481
3381.226663 0.9491 0.9500 0.9500 0.9500 0.9500
3385.619865 0.9501 0.9506 0.9510 0.9510 0.9511
3390.013067 0.9516 0.9520 0.9520 0.9519 0.9514
3394.406268 0.9510 0.9510 0.9511 0.9516 0.9520
3398.799470 0.9520 0.9521 0.9531 0.9540 0.9540
3403.192671 0.9540 0.9540 0.9540 0.9540 0.9540
3407.585873 0.9540 0.9540 0.9540 0.9541 0.9546
3411.979075 0.9550 0.9550 0.9550 0.9550 0.9550
3416.372276 0.9550 0.9551 0.9561 0.9570 0.9570
3420.765478 0.9572 0.9592 0.9610 0.9610 0.9611
3425.158679 0.9616 0.9621 0.9631 0.9641 0.9646
3429.551881 0.9652 0.9667 0.9681 0.9686 0.9691
3433.945083 0.9696 0.9700 0.9700 0.9701 0.9711
3438.338284 0.9720 0.9725 0.9731 0.9741 0.9750
3442.731486 0.9750 0.9751 0.9756 0.9760 0.9760
3447.124687 0.9760 0.9760 0.9760 0.9760 0.9761
3451.517889 0.9776 0.9790 0.9790 0.9790 0.9790
3455.911090 0.9791 0.9806 0.9820 0.9825 0.9830
3460.304292 0.9835 0.9841 0.9856 0.9870 0.9870
3464.697494 0.9870 0.9875 0.9880 0.9880 0.9880
3469.090695 0.9880 0.9881 0.9891 0.9900 0.9900
3473.483897 0.9900 0.9900 0.9900 0.9900 0.9900
3477.877098 0.9900 0.9900 0.9900 0.9900 0.9905
3482.270300 0.9910 0.9910 0.9911 0.9921 0.9930
3486.663502 0.9930 0.9930 0.9935 0.9940 0.9945
3491.056703 0.9951 0.9961 0.9970 0.9970 0.9970
3495.449905 0.9975 0.9980 0.9980 0.9981 0.9991
3499.843106 1.0000 1.0000 1.0000 1.0000 1.0000
3504.236308 1.0000 0.9999 0.9989 0.9980 0.9980
3508.629510 0.9980 0.9980 0.9980 0.9980 0.9980
3513.022711 0.9980 0.9980 0.9980 0.9980 0.9980
3517.415913 0.9980 0.9980 0.9981 0.9990 1.0000
3521.809114 1.0000 1.0000 1.0000 1.0000 1.0000
3526.202316 1.0000 1.0000 1.0000 1.0000 1.0000
3530.595518 1.0000 1.0000 1.0000 1.0000 1.0000
3534.988719 1.0000 0.9990 0.9980 0.9975 0.9970
3539.381921 0.9970 0.9970 0.9960 0.9950 0.9950
3543.775122 0.9950 0.9945 0.9940 0.9940 0.9940
3548.168324 0.9935 0.9930 0.9930 0.9930 0.9920
3552.561526 0.9910 0.9905 0.9900 0.9900 0.9900
3556.954727 0.9890 0.9880 0.9880 0.9880 0.9875
3561.347929 0.9870 0.9870 0.9870 0.9865 0.9860
3565.741130 0.9850 0.9840 0.9840 0.9840 0.9835
3570.134332 0.9830 0.9830 0.9830 0.9825 0.9820
3574.527533 0.9820 0.9820 0.9810 0.9800 0.9795
3578.920735 0.9790 0.9790 0.9790 0.9780 0.9770
3583.313937 0.9770 0.9770 0.9765 0.9760 0.9755
3587.707138 0.9750 0.9735 0.9720 0.9685 0.9650
3592.100340 0.9610 0.9570 0.9560 0.9550 0.9515
3596.493541 0.9480 0.9440 0.9400 0.9350 0.9300
3600.886743 0.9300 0.9300 0.9300 0.9300 0.9300
3605.279945 0.9300 0.9300 0.9300 0.9300 0.9300
3609.673146 0.9310 0.9320 0.9320 0.9320 0.9325
3614.066348 0.9330 0.9330 0.9330 0.9330 0.9330
3618.459549 0.9335 0.9340 0.9340 0.9340 0.9340
3622.852751 0.9340 0.9340 0.9340 0.9340 0.9340
3627.245953 0.9350 0.9360 0.9350 0.9340 0.9350
3631.639154 0.9360 0.9360 0.9360 0.9360 0.9360
3636.032356 0.9365 0.9370 0.9370 0.9370 0.9370
3640.425557 0.9370 0.9380 0.9390 0.9390 0.9390
3644.818759 0.9390 0.9390 0.9395 0.9400 0.9400
3649.211961 0.9400 0.9400 0.9400 0.9400 0.9400
3653.605162 0.9405 0.9410 0.9410 0.9410 0.9410
3657.998364 0.9410 0.9410 0.9410 0.9410 0.9410
3662.391565 0.9410 0.9410 0.9410 0.9410 0.9410
3666.784767 0.9410 0.9410 0.9410 0.9410 0.9410
3671.177969 0.9410 0.9410 0.9410 0.9410 0.9410
3675.571170 0.9410 0.9410 0.9410 0.9410 0.9410
3679.964372 0.9419 0.9429 0.9430 0.9430 0.9430
3684.357573 0.9430 0.9435 0.9440 0.9449 0.9460
3688.750775 0.9460 0.9460 0.9460 0.9460 0.9465
3693.143976 0.9470 0.9470 0.9470 0.9475 0.9480
3697.537178 0.9480 0.9480 0.9480 0.9480 0.9480
3701.930380 0.9480 0.9480 0.9480 0.9480 0.9480
3706.323581 0.9480 0.9480 0.9480 0.9480 0.9480
3710.716783 0.9480 0.9475 0.9470 0.9470 0.9470
3715.109984 0.9470 0.9470 0.9470 0.9470 0.9456
3719.503186 0.9441 0.9435 0.9430 0.9421 0.9411
3723.896388 0.9401 0.9391 0.9376 0.9361 0.9351
3728.289589 0.9341 0.9340 0.9340 0.9340 0.9340
3732.682791 0.9340 0.9340 0.9340 0.9340 0.9340
3737.075992 0.9340 0.9340 0.9340 0.9340 0.9340
3741.469194 0.9349 0.9359 0.9360 0.9360 0.9360
3745.862396 0.9360 0.9360 0.9360 0.9360 0.9360
3750.255597 0.9360 0.9360 0.9360 0.9360 0.9360
3754.648799 0.9360 0.9360 0.9360 0.9360 0.9360
3759.042000 0.9360 0.9360 0.9351 0.9341 0.9340
3763.435202 0.9340 0.9340 0.9340 0.9340 0.9340
3767.828404 0.9340 0.9340 0.9336 0.9331 0.9330
3772.221605 0.9330 0.9330 0.9330 0.9330 0.9330
3776.614807 0.9330 0.9330 0.9334 0.9339 0.9340
3781.008008 0.9340 0.9340 0.9340 0.9340 0.9340
3785.401210 0.9349 0.9359 0.9360 0.9360 0.9351
3789.794411 0.9341 0.9349 0.9359 0.9364 0.9369
3794.187613 0.9370 0.9370 0.9379 0.9389
##END=
